CeO2                                    
1.0
       15.5262002945         0.0000000000         0.0000000000
       -7.7632192797        13.4460007816         0.0000000000
        0.0000000000         0.0000000000        22.9232006073
   Ce    O   Ni    C    H
   48   94   10    1    4
Selective dynamics
Direct
  0.0000000000000000  0.0000000000000000  0.0345700019630755   F   F   F
  0.3328333360741371  0.1652298857346766  0.1743946299762420   T   T   T
  0.1575391291469087  0.3288983964469041  0.3160030716572096   T   T   T
  0.0000100572949933  0.2500000644801403  0.0345700019630755   F   F   F
  0.3307905985206258  0.4158044339206466  0.1721048015786426   T   T   T
  0.1655248661303337  0.0782625605217350  0.3207524885679847   T   T   T
  0.2500000620611331  0.2500000644801403  0.0345700019630755   F   F   F
  0.0832196272142445  0.4173961240227116  0.1746975902483256   T   T   T
  0.4102583698971166  0.0679632727163489  0.3146846204608656   T   T   T
  0.2500000047661359  0.0000000000000000  0.0345700019630755   F   F   F
  0.0836961427111737  0.1659201554072023  0.1751616724326351   T   T   T
  0.4099644300647729  0.3339144388067617  0.3086190202770908   T   T   T
  0.5000000094678683  0.0000000000000000  0.0345700019630755   F   F   F
  0.8338510099540335  0.1667972081406263  0.1745333120683413   T   T   T
  0.6788618375371838  0.3366571446684794  0.3142773241413665   T   T   T
  0.5000100803527943  0.2500000644801403  0.0345700019630755   F   F   F
  0.8343842416633788  0.4178603351516824  0.1736177577968510   T   T   T
  0.6678224617850379  0.0827784176029624  0.3148455865469078   T   T   T
  0.7500000715290014  0.2500000644801403  0.0345700019630755   F   F   F
  0.5835726578562884  0.4159300455706578  0.1726061491461317   T   T   T
  0.9152648220014865  0.0814074150334268  0.3152487842216997   T   T   T
  0.7500000142340042  0.0000000000000000  0.0345700019630755   F   F   F
  0.5830074244463198  0.1667843962091698  0.1752901850359847   T   T   T
  0.9172226646246625  0.3327753731802808  0.3156444636963421   T   T   T
  0.0000001146543980  0.5000001289602878  0.0345700019630755   F   F   F
  0.3316041884974958  0.6676558638280149  0.1728411777687906   T   T   T
  0.1673140608728159  0.8330230553157892  0.3163051172084762   T   T   T
  0.0000101719122014  0.7500001933660556  0.0345700019630755   F   F   F
  0.3335368983423637  0.9163694409460627  0.1726591777355649   T   T   T
  0.1651315626988204  0.5871039262876799  0.3208010054417658   T   T   T
  0.2500001766139306  0.7500001933660556  0.0345700019630755   F   F   F
  0.0843964603305139  0.9172890796940268  0.1744565794686255   T   T   T
  0.4093555865306848  0.5859103894117427  0.3071632130009967   T   T   T
  0.2500001193561232  0.5000001289602878  0.0345700019630755   F   F   F
  0.0839381304616456  0.6668617625834550  0.1743255059822414   T   T   T
  0.4151406441822796  0.8356952702774947  0.3154015224450450   T   T   T
  0.5000001241222591  0.5000001289602878  0.0345700019630755   F   F   F
  0.8366209186701159  0.6680920018499361  0.1721724632709595   T   T   T
  0.6678340150321855  0.8361050015653048  0.3171346132041181   T   T   T
  0.5000101949700024  0.7500001933660556  0.0345700019630755   F   F   F
  0.8330021742887297  0.9151503870614632  0.1747937710175125   T   T   T
  0.6757747063116158  0.5887791932851792  0.3072142358714993   T   T   T
  0.7500001861462096  0.7500001933660556  0.0345700019630755   F   F   F
  0.5828767756139067  0.9158239436025800  0.1745405560171560   T   T   T
  0.9243776801780696  0.5873878803391726  0.3165053103237179   T   T   T
  0.7500001288239915  0.5000001289602878  0.0345700019630755   F   F   F
  0.5832314670721972  0.6669797039264493  0.1724142535957371   T   T   T
  0.9236266544709151  0.8378795236834201  0.3157194953599992   T   T   T
  0.1666700741286604  0.3333400751152737  0.0000000000000000   F   F   F
  0.0007729394060321 -0.0000296769630197  0.1388807239601513   T   T   T
  0.3421816858951243  0.1725516732365284  0.2863703668055427   T   T   T
  0.4166700788947963  0.3333400751152737  0.0000000000000000   F   F   F
  0.2495317767323414  0.0000842667127884  0.1376150713501342   T   T   T
  0.0858007669492461  0.1706218550506035  0.2820782606506397   T   T   T
  0.4166700216200070  0.0833400181466573  0.0000000000000000   F   F   F
  0.2488386274310944  0.2495807908046873  0.1380325611638487   T   T   T
  0.0862261902675320  0.4155057730693072  0.2826151786035019   T   T   T
  0.1666700168538711  0.0833400181466573  0.0000000000000000   F   F   F
  0.9985037790792645  0.2487786376395683  0.1391006172718574   T   T   T
  0.3268906005989763  0.4147866571560530  0.2786924098826393   T   T   T
  0.0833400363880514  0.1666700375576369  0.0691300052784953   F   F   F
  0.4164337848081909  0.3335663962028296  0.2059528450909787   T   T   T
  0.2419561839301377  0.9827961585916231  0.3550832688918515   T   T   T
  0.3333400336829513  0.1666700375576369  0.0691300052784953   F   F   F
  0.1642072293609537  0.3321711706778016  0.2095675425994283   T   T   T
  0.9903191177474697  0.9927818977333254  0.3541429734830372   T   T   T
  0.3333400910423521  0.4166701020377843  0.0691300052784953   F   F   F
  0.1701944101404680  0.0848346452059877  0.2105719133150419   T   T   T
  0.9984655063710385  0.2491110433707934  0.3525707370619425   T   T   T
  0.0833400937474522  0.4166701020377843  0.0691300052784953   F   F   F
  0.4157659282965940  0.0826109123984838  0.2076270768349373   T   T   T
  0.2483419636482973  0.2603384600434079  0.3713291798935121   T   T   T
  0.6666701134170907  0.3333400751152737  0.0000000000000000   F   F   F
  0.5015411331554535  0.0012176983191512  0.1379833366896608   T   T   T
  0.8368515539159394  0.1673116647200755  0.2765440910403220   T   T   T
  0.9166701181832266  0.3333400751152737  0.0000000000000000   F   F   F
  0.7505571845153635  0.0007421819714635  0.1396279731860686   T   T   T
  0.5819191360331373  0.1698014986638930  0.2843208256721650   T   T   T
  0.9166700609084302  0.0833400181466573  0.0000000000000000   F   F   F
  0.7505729596260891  0.2501940886929180  0.1390391380242655   T   T   T
  0.5818541911279038  0.4218004034417918  0.2853317240996494   T   T   T
  0.6666700561422942  0.0833400181466573  0.0000000000000000   F   F   F
  0.5008605707428047  0.2503184897083350  0.1381798496039028   T   T   T
  0.8366351604972168  0.4234427819268718  0.2792595545955657   T   T   T
  0.5833400384490872  0.1666700375576369  0.0691300052784953   F   F   F
  0.9181539213782176  0.3362307334858108  0.2113397328652770   T   T   T
  0.7555997116326304  0.0090108750382583  0.3509514682280957   T   T   T
  0.8333400432152231  0.1666700375576369  0.0691300052784953   F   F   F
  0.6672495042565560  0.3356358288242669  0.2089508443499781   T   T   T
  0.5036072678886662  0.9916396869167642  0.3532294494397245   T   T   T
  0.8333401005102203  0.4166701020377843  0.0691300052784953   F   F   F
  0.6655176262320868  0.0847082691005926  0.2118395494439208   T   T   T
  0.5833400957440773  0.4166701020377843  0.0691300052784953   F   F   F
  0.9178953677842028  0.0805544169258154  0.2115591217402919   T   T   T
  0.7604794063358021  0.2483401895323445  0.3514701623853885   T   T   T
  0.1666701887830584  0.8333402040755615  0.0000000000000000   F   F   F
  0.9990637174346252  0.4998158427551864  0.1378700868254312   T   T   T
  0.3339390625824218  0.6712617618084693  0.2781138065311989   T   T   T
  0.4166701934847836  0.8333402040755615  0.0000000000000000   F   F   F
  0.2477568760295387  0.4984312202259339  0.1374186777889597   T   T   T
  0.0816859364961323  0.6680395940374466  0.2800991257291437   T   T   T
  0.4166701361897935  0.5833401395954212  0.0000000000000000   F   F   F
  0.2493186789469260  0.7497787572353551  0.1374504552047161   T   T   T
  0.0792531948299792  0.9129641280277232  0.2790224798715598   T   T   T
  0.1666701314880612  0.5833401395954212  0.0000000000000000   F   F   F
  0.0006885217195779  0.7503553239854714  0.1375017904835593   T   T   T
  0.3327113212215098  0.9117354265787142  0.2755716735283259   T   T   T
  0.0833401510389109  0.6666701962665442  0.0691300052784953   F   F   F
  0.4167922720171902  0.8333286137802126  0.2073286808309871   T   T   T
  0.2513370987623626  0.4941431076807977  0.3718664429652440   T   T   T
  0.3333401482694001  0.6666701962665442  0.0691300052784953   F   F   F
  0.1664330952140151  0.8334317199307120  0.2090422573913422   T   T   T
  0.9906312255245364  0.4990788085628224  0.3543244762375343   T   T   T
  0.3333402056288008  0.9166702607466917  0.0691300052784953   F   F   F
  0.1646870460219917  0.5824625919782208  0.2086748395672330   T   T   T
  0.9981280106855405  0.7488306791646105  0.3527205104922651   T   T   T
  0.0833402083339081  0.9166702607466917  0.0691300052784953   F   F   F
  0.4152754129311044  0.5835200664748759  0.2040689249371826   T   T   T
  0.2559762730318634  0.7610484986599257  0.3542811064612179   T   T   T
  0.6666702280714816  0.8333402040755615  0.0000000000000000   F   F   F
  0.5010232960233861  0.5000453669038691  0.1377545632729720   T   T   T
  0.8332214275590066  0.6673107541459937  0.2805664915790581   T   T   T
  0.9166702327732139  0.8333402040755615  0.0000000000000000   F   F   F
  0.7510950739942294  0.5000533834504667  0.1372991343931715   T   T   T
  0.5806592523734857  0.6535644152372300  0.2807528152863602   T   T   T
  0.9166701754782238  0.5833401395954212  0.0000000000000000   F   F   F
  0.7506714590853274  0.7497140582782413  0.1375150479311762   T   T   T
  0.5810771030542362  0.9145896912663499  0.2780876976966231   T   T   T
  0.6666701707764915  0.5833401395954212  0.0000000000000000   F   F   F
  0.5004765066841136  0.7505469742046821  0.1373795562915545   T   T   T
  0.8340511866607118  0.9104035218736816  0.2803050516306048   T   T   T
  0.5833401530355360  0.6666701962665442  0.0691300052784953   F   F   F
  0.9164971839157997  0.8315106380515161  0.2095970365965540   T   T   T
  0.7468048263144021  0.5056736099692187  0.3672085104440381   T   T   T
  0.8333401578016790  0.6666701962665442  0.0691300052784953   F   F   F
  0.6654750598001165  0.8292343180156295  0.2087701998534737   T   T   T
  0.8333402150966691  0.9166702607466917  0.0691300052784953   F   F   F
  0.6706359738373127  0.5831340050555996  0.2069349982477950   T   T   T
  0.9177060184058954  0.5856653703675778  0.2101157855942130   T   T   T
  0.5840702481251228  0.9168302396995358  0.0693399999127493   F   F   F
  0.7403200739233241  0.7351705425081277  0.3685944403413874   T   T   T
  0.4946648122849505  0.7504883849541668  0.3647374952967294   T   T   T
  0.5091204315079118  0.6781578576192157  0.4218877175675838   T   T   T
  0.6568666931852305  0.6648130066927471  0.4303352391292697   T   T   T
  0.5164032805870233  0.6221364014021326  0.5115269707436326   T   T   T
  0.4962732294071076  0.5160904032568630  0.4243331064665984   T   T   T
  0.6518154147740656  0.4905434499639732  0.4205876872736991   T   T   T
  0.4918200312922847  0.3734074590529944  0.4588362782342954   T   T   T
  0.5973041210220030  0.5303648699562389  0.5064168584348215   T   T   T
  0.3338328408943558  0.5001351220092543  0.4311309265858915   T   T   T
  0.4073158930929621  0.4468942797998519  0.5106427343237342   T   T   T
  0.3303609000972474  0.3454793201247093  0.4271595078139858   T   T   T
     0.490000010         0.660000026         0.589999974  T  T  T
     0.419999987         0.670000017         0.605000019  T  T  T
     0.564999998         0.709999979         0.605000019  T  T  T
     0.490000010         0.589999974         0.605000019  T  T  T
     0.407315999         0.439999998         0.579999983  T  T  T
