CeO2                                    
   1.00000000000000     
    15.5262002945000006    0.0000000000000000    0.0000000000000000
    -7.7632192797000004   13.4460007816000005    0.0000000000000000
     0.0000000000000000    0.0000000000000000   22.9232006073000001
   Ce   O    Ni   C    H 
    48    94    10     1     4
Direct
  0.0000391719492612  0.9940590126868543  0.0303362350223040
  0.3327536028882818  0.1583707499035256  0.1700890566369608
  0.1572120009283964  0.3218003500286599  0.3108971063670296
  0.9994059875837848  0.2433683963077442  0.0309069464744951
  0.3311204991316998  0.4095687098790606  0.1673628154547302
  0.1648935289341011  0.0705729021030521  0.3159874344073828
  0.2494410526245190  0.2429486390000761  0.0300722553626116
  0.0832510160246756  0.4112438466786088  0.1704087338513673
  0.4098988004846618  0.0607220174085228  0.3103208960846899
  0.2500739911197840  0.9940631710758225  0.0293864137851685
  0.0835670022733623  0.1592987321783852  0.1710905023715128
  0.4098635148310095  0.3271102378823443  0.3035497414283626
  0.5011603459632070  0.9942923965620807  0.0300232196188333
  0.8334037754232924  0.1605095843053448  0.1706489527342754
  0.6786027654973878  0.3311965724144130  0.3104715742512951
  0.5001518201358408  0.2429836877844167  0.0299208121912073
  0.8344140089467942  0.4119910547139085  0.1691654211296409
  0.6677215016502274  0.0766091115628598  0.3104398768161971
  0.7497229149457638  0.2432539754445529  0.0304878173622143
  0.5837947566548820  0.4094890759754648  0.1678209321399819
  0.9150978227612114  0.0745401587085794  0.3104578789534145
  0.7503398992321166  0.9938080103841216  0.0306496295227205
  0.5827971412116710  0.1605262584341673  0.1714905384287135
  0.9173128723039810  0.3268976876244594  0.3112597890326541
  0.9997446170863569  0.4928554578327962  0.0292092826699886
  0.3319804741405505  0.6607768652396686  0.1677751609857410
  0.1677228059617235  0.8260577515701186  0.3115461400523643
  0.0010909971711683  0.7443505464129174  0.0281091695246189
  0.3334919550405573  0.9093370115734842  0.1678389523910795
  0.1660126961813617  0.5803955374399976  0.3159898989453609
  0.2500711643363758  0.7435771371375068  0.0281863643071176
  0.0845992190428504  0.9104804194147249  0.1697839208137850
  0.4101872902389161  0.5791396893325853  0.3032802492993696
  0.2490457146915546  0.4928257179523357  0.0289625867717049
  0.0846013760045281  0.6607027563885026  0.1688664011976471
  0.4155799294231528  0.8285381214347325  0.3107381482682428
  0.5003283916034391  0.4932669527664686  0.0288715288385077
  0.8372696817169967  0.6616884327034143  0.1666461883433143
  0.6687847329576968  0.8297807143006892  0.3116164996784008
  0.5001427985970395  0.7439879387017214  0.0288869490503245
  0.8332055171078565  0.9085003262942593  0.1702748060313652
  0.6762134415866043  0.5817815864130935  0.3019132070045671
  0.7509515869704799  0.7444858823151890  0.0287275256598747
  0.5826829375437157  0.9089743561385433  0.1700468328369311
  0.9263733749219725  0.5821617779070820  0.3114066942656422
  0.7506023360216574  0.4931215749152642  0.0285006730050554
  0.5836425510170997  0.6602523740369293  0.1671847580624899
  0.9227963172355587  0.8302327448724753  0.3110121174938456
  0.1665126387571476  0.3270476293784839  0.9946635054178756
  0.0012382827920590  0.9940384773975239  0.1345532419334958
  0.3421505026964837  0.1655314555138148  0.2818399829800597
  0.4171681656166299  0.3268329622144961  0.9944697724420024
  0.2496144752032663  0.9929220263024874  0.1324239124297151
  0.0841822416046725  0.1621842060675220  0.2770696852784909
  0.4172301541019792  0.0778313812155247  0.9946422484415720
  0.2482661166276614  0.2428333585531917  0.1337905778617028
  0.0856167932221155  0.4088862613239996  0.2775617594513093
  0.1670863491750580  0.0781981255376039  0.9945795099316044
  0.9979810959072566  0.2421773589222695  0.1354375074354977
  0.3266137860452361  0.4078615539821939  0.2743361987007233
  0.0827673260966577  0.1604150258857828  0.0660973839069356
  0.4159920032404472  0.3271514066478503  0.2008558829661453
  0.2413784185174848  0.9751426113479837  0.3507381814437949
  0.3333437700887245  0.1605484573383720  0.0660780384962152
  0.1644474023838285  0.3259550942314817  0.2053297895824144
  0.9896548883670917  0.9843690381482730  0.3493827410968748
  0.3333488353826155  0.4096838165421914  0.0651474063020601
  0.1708139765642045  0.0775304311226606  0.2061437134805573
  0.9987395829759080  0.2425969518204951  0.3476405205524387
  0.0817737899573885  0.4088531334407079  0.0658365920923387
  0.4151756125584924  0.0748896067790952  0.2034556046039100
  0.2450675911648048  0.2502955966213136  0.3650711316543536
  0.6667019859614953  0.3267006940964876  0.9940411217517635
  0.5014976099794737  0.9940951647313838  0.1334870887720001
  0.8365043622284460  0.1615359128210798  0.2723286625985040
  0.9163595356907734  0.3260551057624781  0.9943669228203049
  0.7499508510062540  0.9942914997632215  0.1350222560711600
  0.5813507765015302  0.1636002248018897  0.2805439259143725
  0.9161996258000471  0.0768161455950036  0.9951789462874103
  0.7499997711905380  0.2439329311030534  0.1349241211731780
  0.5809694161415919  0.4154233788067643  0.2795879334400695
  0.6668129891236845  0.0776353030031629  0.9947438602226413
  0.5006747861394842  0.2429654014394416  0.1339728096835913
  0.8363635287908764  0.4192034803807161  0.2754526398998607
  0.5838122032340962  0.1606664765742565  0.0661664896430878
  0.9172048643878412  0.3304328791798312  0.2071244397395731
  0.7556162579993213  0.0028465595295870  0.3460437665904479
  0.8330085501629512  0.1603378009166363  0.0660842212473369
  0.6673944380853811  0.3293366426326969  0.2048147055599046
  0.5041237333296493  0.9850237254890573  0.3484926489776683
  0.8334550731584258  0.4096828424176664  0.0650254724630841
  0.6650641723580648  0.0782445079090550  0.2078620563929832
  0.5837857789566669  0.4092834787618429  0.0654446449121053
  0.9167428298502429  0.0736860403511272  0.2068539216688450
  0.7605707213322219  0.2430700972670650  0.3470579042668263
  0.1668224755604086  0.8277619732645647  0.9927105004904746
  0.9995406252091783  0.4939678941680086  0.1329934590778663
  0.3346944275905699  0.6632848877966708  0.2739038560446048
  0.4171747696803365  0.8272477289972002  0.9933679533219930
  0.2481791611144146  0.4923648254469484  0.1324394552395063
  0.0829037332147990  0.6618079460354735  0.2749172898391166
  0.4162542823697422  0.5758088438780504  0.9939451384604396
  0.2494178065209240  0.7431080707086792  0.1317041269068611
  0.0791421063044595  0.9053597352501725  0.2740064579784161
  0.1660733220133537  0.5747975430641077  0.9936423807979509
  0.0016642655063279  0.7444360818835776  0.1316229996182088
  0.3327001341132956  0.9044267121901868  0.2711680164044594
  0.0836964609937993  0.6606824514514074  0.0635355671137887
  0.4168270969984889  0.8259762241600086  0.2029310029653644
  0.2511136454739500  0.4855489860439377  0.3668659945847921
  0.3330649100935190  0.6606214198714540  0.0638277691459308
  0.1667306526242314  0.8267949445138711  0.2039803856646643
  0.9926360608993008  0.4934963062203082  0.3494683599847050
  0.3336649593049970  0.9098396504935096  0.0643542840864981
  0.1660613846484083  0.5766756024991011  0.2036799789317527
  0.9991710178950157  0.7408446805294062  0.3481285233080129
  0.0833529767630097  0.9109254339983295  0.0640716357207936
  0.4160795517954696  0.5771597392512788  0.1995193541884888
  0.2574174207825592  0.7538098364214747  0.3498552903079784
  0.6685201227426987  0.8280325612275803  0.9940144309367156
  0.5019837830395275  0.4942695934494168  0.1324743234910528
  0.8342746876822744  0.6594080700424598  0.2753073356144640
  0.9165986397071180  0.8278469079378823  0.9932728560452020
  0.7520509779190974  0.4939315783362304  0.1321065405296480
  0.5818545340311942  0.6476030038766680  0.2762513832044249
  0.9163388161275279  0.5760006478515578  0.9931925061928339
  0.7508219109883711  0.7427434053147621  0.1321623356719570
  0.5808116337940703  0.9072799378244838  0.2732576501930239
  0.6664347241613200  0.5755191487845366  0.9939220160395053
  0.5004366229352399  0.7440163253777783  0.1318707735337270
  0.8350334779029112  0.9049268264916606  0.2749491279946739
  0.5837772309151248  0.6606726298667169  0.0638600284011233
  0.9167555307368573  0.8245590093513187  0.2044919506000724
  0.7388806699321648  0.4980776567831313  0.3652656876567377
  0.8345929924365336  0.6610705102971863  0.0636397420077657
  0.6657786034249540  0.8225894608652169  0.2037582130476281
  0.8339102486026988  0.9106036340516255  0.0661400818450986
  0.6709829044340054  0.5766372482663940  0.2018228637725912
  0.9191593727753329  0.5800978258348550  0.2046362311856598
  0.5839248109502719  0.9105114158124508  0.0646566208682060
  0.7486618398631251  0.7332133826287546  0.3614615873115810
  0.4982377735102403  0.7448975053021769  0.3602177893043290
  0.5171802985774363  0.6750014527805988  0.4173295361398317
  0.6602889590237098  0.6599230414691490  0.4205749100200578
  0.4566772257587601  0.5939476147958729  0.5024060654913853
  0.4896464237592042  0.5089189153022247  0.4172010907686641
  0.6461573879085591  0.4910428144853682  0.4184973437425867
  0.4894331111952539  0.3716188672742149  0.4575426805951466
  0.5812307103648564  0.5420626595680744  0.5001197972151559
  0.3260703156414522  0.4864183097570987  0.4290756363844181
  0.3908590455903536  0.4233813235495631  0.5080913204389361
  0.3264756334542156  0.3319515498888848  0.4218777629589852
  0.5171067527315216  0.8869596449588641  0.5019259717041251
  0.4377590437798696  0.8338797610583087  0.4982538409102517
  0.5562611165811973  0.8486400987321332  0.5161247854309110
  0.5288907250241479  0.9438540966845395  0.5338581003872562
  0.5454400653195890  0.9214078637282697  0.4595868696777075
 
             NaN             NaN             NaN
             NaN             NaN             NaN
             NaN             NaN             NaN
             NaN             NaN             NaN
             NaN             NaN             NaN
             NaN             NaN             NaN
             NaN             NaN             NaN
             NaN             NaN             NaN
             NaN             NaN             NaN
             NaN             NaN             NaN
             NaN             NaN             NaN
             NaN             NaN             NaN
             NaN             NaN             NaN
             NaN             NaN             NaN
             NaN             NaN             NaN
             NaN             NaN             NaN
             NaN             NaN             NaN
             NaN             NaN             NaN
             NaN             NaN             NaN
             NaN             NaN             NaN
             NaN             NaN             NaN
             NaN             NaN             NaN
             NaN             NaN             NaN
             NaN             NaN             NaN
             NaN             NaN             NaN
             NaN             NaN             NaN
             NaN             NaN             NaN
             NaN             NaN             NaN
             NaN             NaN             NaN
             NaN             NaN             NaN
             NaN             NaN             NaN
             NaN             NaN             NaN
             NaN             NaN             NaN
             NaN             NaN             NaN
             NaN             NaN             NaN
             NaN             NaN             NaN
             NaN             NaN             NaN
             NaN             NaN             NaN
             NaN             NaN             NaN
             NaN             NaN             NaN
             NaN             NaN             NaN
             NaN             NaN             NaN
             NaN             NaN             NaN
             NaN             NaN             NaN
             NaN             NaN             NaN
             NaN             NaN             NaN
             NaN             NaN             NaN
             NaN             NaN             NaN
             NaN             NaN             NaN
             NaN             NaN             NaN
             NaN             NaN             NaN
             NaN             NaN             NaN
             NaN             NaN             NaN
             NaN             NaN             NaN
             NaN             NaN             NaN
             NaN             NaN             NaN
             NaN             NaN             NaN
             NaN             NaN             NaN
             NaN             NaN             NaN
             NaN             NaN             NaN
             NaN             NaN             NaN
             NaN             NaN             NaN
             NaN             NaN             NaN
             NaN             NaN             NaN
             NaN             NaN             NaN
             NaN             NaN             NaN
             NaN             NaN             NaN
             NaN             NaN             NaN
             NaN             NaN             NaN
             NaN             NaN             NaN
             NaN             NaN             NaN
             NaN             NaN             NaN
             NaN             NaN             NaN
             NaN             NaN             NaN
             NaN             NaN             NaN
             NaN             NaN             NaN
             NaN             NaN             NaN
             NaN             NaN             NaN
             NaN             NaN             NaN
             NaN             NaN             NaN
             NaN             NaN             NaN
             NaN             NaN             NaN
             NaN             NaN             NaN
             NaN             NaN             NaN
             NaN             NaN             NaN
             NaN             NaN             NaN
             NaN             NaN             NaN
             NaN             NaN             NaN
             NaN             NaN             NaN
             NaN             NaN             NaN
             NaN             NaN             NaN
             NaN             NaN             NaN
             NaN             NaN             NaN
             NaN             NaN             NaN
             NaN             NaN             NaN
             NaN             NaN             NaN
             NaN             NaN             NaN
             NaN             NaN             NaN
             NaN             NaN             NaN
             NaN             NaN             NaN
             NaN             NaN             NaN
             NaN             NaN             NaN
             NaN             NaN             NaN
             NaN             NaN             NaN
             NaN             NaN             NaN
             NaN             NaN             NaN
             NaN             NaN             NaN
             NaN             NaN             NaN
             NaN             NaN             NaN
             NaN             NaN             NaN
             NaN             NaN             NaN
             NaN             NaN             NaN
             NaN             NaN             NaN
             NaN             NaN             NaN
             NaN             NaN             NaN
             NaN             NaN             NaN
             NaN             NaN             NaN
             NaN             NaN             NaN
             NaN             NaN             NaN
             NaN             NaN             NaN
             NaN             NaN             NaN
             NaN             NaN             NaN
             NaN             NaN             NaN
             NaN             NaN             NaN
             NaN             NaN             NaN
             NaN             NaN             NaN
             NaN             NaN             NaN
             NaN             NaN             NaN
             NaN             NaN             NaN
             NaN             NaN             NaN
             NaN             NaN             NaN
             NaN             NaN             NaN
             NaN             NaN             NaN
             NaN             NaN             NaN
             NaN             NaN             NaN
             NaN             NaN             NaN
             NaN             NaN             NaN
             NaN             NaN             NaN
             NaN             NaN             NaN
             NaN             NaN             NaN
             NaN             NaN             NaN
             NaN             NaN             NaN
             NaN             NaN             NaN
             NaN             NaN             NaN
             NaN             NaN             NaN
             NaN             NaN             NaN
             NaN             NaN             NaN
             NaN             NaN             NaN
             NaN             NaN             NaN
             NaN             NaN             NaN
             NaN             NaN             NaN
             NaN             NaN             NaN
             NaN             NaN             NaN
             NaN             NaN             NaN
             NaN             NaN             NaN
             NaN             NaN             NaN
             NaN             NaN             NaN
