CeO2                                    
   1.00000000000000     
    15.5262002945000006    0.0000000000000000    0.0000000000000000
    -7.7632192797000004   13.4460007816000005    0.0000000000000000
     0.0000000000000000    0.0000000000000000   22.9232006073000001
   Ce   O    Ni   C    H 
    48    94    10     1     4
Direct
  0.0000391719492579  0.9940590126868533  0.0303362350223041
  0.3327536028882842  0.1583707499035230  0.1700890566369581
  0.1572120009283999  0.3218003500286621  0.3108971063670330
  0.9994059875837878  0.2433683963077470  0.0309069464744942
  0.3311204991316987  0.4095687098790624  0.1673628154547323
  0.1648935289340980  0.0705729021030489  0.3159874344073815
  0.2494410526245191  0.2429486390000753  0.0300722553626126
  0.0832510160246752  0.4112438466786078  0.1704087338513693
  0.4098988004846599  0.0607220174085229  0.3103208960846929
  0.2500739911197839  0.9940631710758208  0.0293864137851712
  0.0835670022733589  0.1592987321783820  0.1710905023715142
  0.4098635148310074  0.3271102378823473  0.3035497414283616
  0.5011603459632086  0.9942923965620816  0.0300232196188341
  0.8334037754232896  0.1605095843053475  0.1706489527342741
  0.6786027654973856  0.3311965724144153  0.3104715742512980
  0.5001518201358375  0.2429836877844193  0.0299208121912043
  0.8344140089467962  0.4119910547139078  0.1691654211296434
  0.6677215016502296  0.0766091115628572  0.3104398768161938
  0.7497229149457622  0.2432539754445498  0.0304878173622167
  0.5837947566548821  0.4094890759754639  0.1678209321399817
  0.9150978227612150  0.0745401587085806  0.3104578789534125
  0.7503398992321201  0.9938080103841193  0.0306496295227182
  0.5827971412116735  0.1605262584341694  0.1714905384287135
  0.9173128723039781  0.3268976876244611  0.3112597890326506
  0.9997446170863560  0.4928554578327960  0.0292092826699867
  0.3319804741405493  0.6607768652396657  0.1677751609857381
  0.1677228059617236  0.8260577515701154  0.3115461400523656
  0.0010909971711652  0.7443505464129195  0.0281091695246168
  0.3334919550405590  0.9093370115734821  0.1678389523910829
  0.1660126961813605  0.5803955374399966  0.3159898989453613
  0.2500711643363722  0.7435771371375095  0.0281863643071187
  0.0845992190428525  0.9104804194147278  0.1697839208137818
  0.4101872902389127  0.5791396893325830  0.3032802492993673
  0.2490457146915564  0.4928257179523329  0.0289625867717067
  0.0846013760045275  0.6607027563885041  0.1688664011976486
  0.4155799294231559  0.8285381214347354  0.3107381482682416
  0.5003283916034416  0.4932669527664718  0.0288715288385060
  0.8372696817169961  0.6616884327034130  0.1666461883433125
  0.6687847329577000  0.8297807143006908  0.3116164996783995
  0.5001427985970390  0.7439879387017229  0.0288869490503237
  0.8332055171078574  0.9085003262942613  0.1702748060313638
  0.6762134415866055  0.5817815864130926  0.3019132070045705
  0.7509515869704803  0.7444858823151884  0.0287275256598744
  0.5826829375437176  0.9089743561385423  0.1700468328369302
  0.9263733749219714  0.5821617779070798  0.3114066942656457
  0.7506023360216592  0.4931215749152658  0.0285006730050582
  0.5836425510171013  0.6602523740369306  0.1671847580624891
  0.9227963172355598  0.8302327448724752  0.3110121174938433
  0.1665126387571474  0.3270476293784816  0.9946635054178792
  0.0012382827920577  0.9940384773975240  0.1345532419334936
  0.3421505026964868  0.1655314555138177  0.2818399829800592
  0.4171681656166281  0.3268329622144941  0.9944697724420011
  0.2496144752032642  0.9929220263024904  0.1324239124297168
  0.0841822416046726  0.1621842060675253  0.2770696852784926
  0.4172301541019777  0.0778313812155246  0.9946422484415718
  0.2482661166276648  0.2428333585531897  0.1337905778617048
  0.0856167932221166  0.4088862613239970  0.2775617594513121
  0.1670863491750578  0.0781981255376050  0.9945795099316067
  0.9979810959072594  0.2421773589222684  0.1354375074354991
  0.3266137860452331  0.4078615539821959  0.2743361987007259
  0.0827673260966580  0.1604150258857847  0.0660973839069383
  0.4159920032404478  0.3271514066478505  0.2008558829661461
  0.2413784185174834  0.9751426113479854  0.3507381814437971
  0.3333437700887223  0.1605484573383711  0.0660780384962144
  0.1644474023838314  0.3259550942314813  0.2053297895824119
  0.9896548883670898  0.9843690381482745  0.3493827410968754
  0.3333488353826128  0.4096838165421907  0.0651474063020580
  0.1708139765642021  0.0775304311226581  0.2061437134805540
  0.9987395829759097  0.2425969518204950  0.3476405205524377
  0.0817737899573890  0.4088531334407051  0.0658365920923354
  0.4151756125584911  0.0748896067790958  0.2034556046039134
  0.2450675911648046  0.2502955966213128  0.3650711316543565
  0.6667019859614920  0.3267006940964901  0.9940411217517615
  0.5014976099794761  0.9940951647313855  0.1334870887719970
  0.8365043622284482  0.1615359128210792  0.2723286625985025
  0.9163595356907703  0.3260551057624764  0.9943669228203014
  0.7499508510062574  0.9942914997632212  0.1350222560711594
  0.5813507765015301  0.1636002248018930  0.2805439259143757
  0.9161996258000470  0.0768161455950014  0.9951789462874127
  0.7499997711905353  0.2439329311030561  0.1349241211731797
  0.5809694161415918  0.4154233788067656  0.2795879334400664
  0.6668129891236844  0.0776353030031605  0.9947438602226408
  0.5006747861394816  0.2429654014394436  0.1339728096835898
  0.8363635287908791  0.4192034803807143  0.2754526398998630
  0.5838122032340989  0.1606664765742583  0.0661664896430881
  0.9172048643878445  0.3304328791798303  0.2071244397395760
  0.7556162579993241  0.0028465595295896  0.3460437665904514
  0.8330085501629518  0.1603378009166393  0.0660842212473394
  0.6673944380853823  0.3293366426326964  0.2048147055599024
  0.5041237333296462  0.9850237254890579  0.3484926489776676
  0.8334550731584227  0.4096828424176681  0.0650254724630871
  0.6650641723580636  0.0782445079090522  0.2078620563929833
  0.5837857789566656  0.4092834787618442  0.0654446449121058
  0.9167428298502462  0.0736860403511259  0.2068539216688416
  0.7605707213322189  0.2430700972670644  0.3470579042668286
  0.1668224755604115  0.8277619732645630  0.9927105004904736
  0.9995406252091792  0.4939678941680107  0.1329934590778649
  0.3346944275905666  0.6632848877966688  0.2739038560446039
  0.4171747696803344  0.8272477289971986  0.9933679533219941
  0.2481791611144151  0.4923648254469511  0.1324394552395052
  0.0829037332147959  0.6618079460354739  0.2749172898391187
  0.4162542823697440  0.5758088438780475  0.9939451384604431
  0.2494178065209240  0.7431080707086820  0.1317041269068646
  0.0791421063044586  0.9053597352501745  0.2740064579784195
  0.1660733220133503  0.5747975430641089  0.9936423807979519
  0.0016642655063277  0.7444360818835749  0.1316229996182091
  0.3327001341132989  0.9044267121901858  0.2711680164044609
  0.0836964609938020  0.6606824514514096  0.0635355671137893
  0.4168270969984914  0.8259762241600067  0.2029310029653643
  0.2511136454739508  0.4855489860439411  0.3668659945847914
  0.3330649100935200  0.6606214198714554  0.0638277691459341
  0.1667306526242295  0.8267949445138734  0.2039803856646645
  0.9926360608993041  0.4934963062203062  0.3494683599847042
  0.3336649593049956  0.9098396504935093  0.0643542840864984
  0.1660613846484097  0.5766756024990995  0.2036799789317498
  0.9991710178950154  0.7408446805294041  0.3481285233080132
  0.0833529767630114  0.9109254339983280  0.0640716357207961
  0.4160795517954706  0.5771597392512812  0.1995193541884908
  0.2574174207825561  0.7538098364214775  0.3498552903079775
  0.6685201227426963  0.8280325612275768  0.9940144309367136
  0.5019837830395258  0.4942695934494193  0.1324743234910553
  0.8342746876822762  0.6594080700424596  0.2753073356144607
  0.9165986397071150  0.8278469079378844  0.9932728560451985
  0.7520509779190991  0.4939315783362307  0.1321065405296513
  0.5818545340311945  0.6476030038766666  0.2762513832044279
  0.9163388161275289  0.5760006478515567  0.9931925061928314
  0.7508219109883690  0.7427434053147611  0.1321623356719576
  0.5808116337940712  0.9072799378244825  0.2732576501930241
  0.6664347241613231  0.5755191487845335  0.9939220160395063
  0.5004366229352398  0.7440163253777782  0.1318707735337268
  0.8350334779029145  0.9049268264916585  0.2749491279946750
  0.5837772309151235  0.6606726298667147  0.0638600284011259
  0.9167555307368608  0.8245590093513170  0.2044919506000695
  0.7388806699321632  0.4980776567831318  0.3652656876567345
  0.8345929924365304  0.6610705102971842  0.0636397420077678
  0.6657786034249527  0.8225894608652146  0.2037582130476291
  0.8339102486026957  0.9106036340516287  0.0661400818450962
  0.6709829044340087  0.5766372482663975  0.2018228637725878
  0.9191593727753328  0.5800978258348549  0.2046362311856612
  0.5839248109502733  0.9105114158124524  0.0646566208682080
  0.7486618398631245  0.7332133826287531  0.3614615873115838
  0.4982377735102410  0.7448975053021747  0.3602177893043287
  0.5171802985774383  0.6750014527805954  0.4173295361398292
  0.6602889590237115  0.6599230414691467  0.4205749100200605
  0.4566772257587603  0.5939476147958728  0.5024060654913881
  0.4896464237592069  0.5089189153022247  0.4172010907686630
  0.6461573879085557  0.4910428144853717  0.4184973437425835
  0.4894331111952570  0.3716188672742126  0.4575426805951441
  0.5812307103648557  0.5420626595680734  0.5001197972151538
  0.3260703156414505  0.4864183097570970  0.4290756363844160
  0.3908590455903539  0.4233813235495597  0.5080913204389341
  0.3264756334542123  0.3319515498888851  0.4218777629589845
  0.5171067527315241  0.8869596449588636  0.5019259717041253
  0.4377218574312196  0.8338053895023193  0.4982538409102529
  0.5562611165811960  0.8486400987321360  0.5161247854309118
  0.5288907250241475  0.9438540966845390  0.5338581003872592
  0.5454400653195881  0.9214078637282668  0.4595868696777105
 
  0.00000000E+00  0.00000000E+00  0.00000000E+00
  0.00000000E+00  0.00000000E+00  0.00000000E+00
  0.00000000E+00  0.00000000E+00  0.00000000E+00
  0.00000000E+00  0.00000000E+00  0.00000000E+00
  0.00000000E+00  0.00000000E+00  0.00000000E+00
  0.00000000E+00  0.00000000E+00  0.00000000E+00
  0.00000000E+00  0.00000000E+00  0.00000000E+00
  0.00000000E+00  0.00000000E+00  0.00000000E+00
  0.00000000E+00  0.00000000E+00  0.00000000E+00
  0.00000000E+00  0.00000000E+00  0.00000000E+00
  0.00000000E+00  0.00000000E+00  0.00000000E+00
  0.00000000E+00  0.00000000E+00  0.00000000E+00
  0.00000000E+00  0.00000000E+00  0.00000000E+00
  0.00000000E+00  0.00000000E+00  0.00000000E+00
  0.00000000E+00  0.00000000E+00  0.00000000E+00
  0.00000000E+00  0.00000000E+00  0.00000000E+00
  0.00000000E+00  0.00000000E+00  0.00000000E+00
  0.00000000E+00  0.00000000E+00  0.00000000E+00
  0.00000000E+00  0.00000000E+00  0.00000000E+00
  0.00000000E+00  0.00000000E+00  0.00000000E+00
  0.00000000E+00  0.00000000E+00  0.00000000E+00
  0.00000000E+00  0.00000000E+00  0.00000000E+00
  0.00000000E+00  0.00000000E+00  0.00000000E+00
  0.00000000E+00  0.00000000E+00  0.00000000E+00
  0.00000000E+00  0.00000000E+00  0.00000000E+00
  0.00000000E+00  0.00000000E+00  0.00000000E+00
  0.00000000E+00  0.00000000E+00  0.00000000E+00
  0.00000000E+00  0.00000000E+00  0.00000000E+00
  0.00000000E+00  0.00000000E+00  0.00000000E+00
  0.00000000E+00  0.00000000E+00  0.00000000E+00
  0.00000000E+00  0.00000000E+00  0.00000000E+00
  0.00000000E+00  0.00000000E+00  0.00000000E+00
  0.00000000E+00  0.00000000E+00  0.00000000E+00
  0.00000000E+00  0.00000000E+00  0.00000000E+00
  0.00000000E+00  0.00000000E+00  0.00000000E+00
  0.00000000E+00  0.00000000E+00  0.00000000E+00
  0.00000000E+00  0.00000000E+00  0.00000000E+00
  0.00000000E+00  0.00000000E+00  0.00000000E+00
  0.00000000E+00  0.00000000E+00  0.00000000E+00
  0.00000000E+00  0.00000000E+00  0.00000000E+00
  0.00000000E+00  0.00000000E+00  0.00000000E+00
  0.00000000E+00  0.00000000E+00  0.00000000E+00
  0.00000000E+00  0.00000000E+00  0.00000000E+00
  0.00000000E+00  0.00000000E+00  0.00000000E+00
  0.00000000E+00  0.00000000E+00  0.00000000E+00
  0.00000000E+00  0.00000000E+00  0.00000000E+00
  0.00000000E+00  0.00000000E+00  0.00000000E+00
  0.00000000E+00  0.00000000E+00  0.00000000E+00
  0.00000000E+00  0.00000000E+00  0.00000000E+00
  0.00000000E+00  0.00000000E+00  0.00000000E+00
  0.00000000E+00  0.00000000E+00  0.00000000E+00
  0.00000000E+00  0.00000000E+00  0.00000000E+00
  0.00000000E+00  0.00000000E+00  0.00000000E+00
  0.00000000E+00  0.00000000E+00  0.00000000E+00
  0.00000000E+00  0.00000000E+00  0.00000000E+00
  0.00000000E+00  0.00000000E+00  0.00000000E+00
  0.00000000E+00  0.00000000E+00  0.00000000E+00
  0.00000000E+00  0.00000000E+00  0.00000000E+00
  0.00000000E+00  0.00000000E+00  0.00000000E+00
  0.00000000E+00  0.00000000E+00  0.00000000E+00
  0.00000000E+00  0.00000000E+00  0.00000000E+00
  0.00000000E+00  0.00000000E+00  0.00000000E+00
  0.00000000E+00  0.00000000E+00  0.00000000E+00
  0.00000000E+00  0.00000000E+00  0.00000000E+00
  0.00000000E+00  0.00000000E+00  0.00000000E+00
  0.00000000E+00  0.00000000E+00  0.00000000E+00
  0.00000000E+00  0.00000000E+00  0.00000000E+00
  0.00000000E+00  0.00000000E+00  0.00000000E+00
  0.00000000E+00  0.00000000E+00  0.00000000E+00
  0.00000000E+00  0.00000000E+00  0.00000000E+00
  0.00000000E+00  0.00000000E+00  0.00000000E+00
  0.00000000E+00  0.00000000E+00  0.00000000E+00
  0.00000000E+00  0.00000000E+00  0.00000000E+00
  0.00000000E+00  0.00000000E+00  0.00000000E+00
  0.00000000E+00  0.00000000E+00  0.00000000E+00
  0.00000000E+00  0.00000000E+00  0.00000000E+00
  0.00000000E+00  0.00000000E+00  0.00000000E+00
  0.00000000E+00  0.00000000E+00  0.00000000E+00
  0.00000000E+00  0.00000000E+00  0.00000000E+00
  0.00000000E+00  0.00000000E+00  0.00000000E+00
  0.00000000E+00  0.00000000E+00  0.00000000E+00
  0.00000000E+00  0.00000000E+00  0.00000000E+00
  0.00000000E+00  0.00000000E+00  0.00000000E+00
  0.00000000E+00  0.00000000E+00  0.00000000E+00
  0.00000000E+00  0.00000000E+00  0.00000000E+00
  0.00000000E+00  0.00000000E+00  0.00000000E+00
  0.00000000E+00  0.00000000E+00  0.00000000E+00
  0.00000000E+00  0.00000000E+00  0.00000000E+00
  0.00000000E+00  0.00000000E+00  0.00000000E+00
  0.00000000E+00  0.00000000E+00  0.00000000E+00
  0.00000000E+00  0.00000000E+00  0.00000000E+00
  0.00000000E+00  0.00000000E+00  0.00000000E+00
  0.00000000E+00  0.00000000E+00  0.00000000E+00
  0.00000000E+00  0.00000000E+00  0.00000000E+00
  0.00000000E+00  0.00000000E+00  0.00000000E+00
  0.00000000E+00  0.00000000E+00  0.00000000E+00
  0.00000000E+00  0.00000000E+00  0.00000000E+00
  0.00000000E+00  0.00000000E+00  0.00000000E+00
  0.00000000E+00  0.00000000E+00  0.00000000E+00
  0.00000000E+00  0.00000000E+00  0.00000000E+00
  0.00000000E+00  0.00000000E+00  0.00000000E+00
  0.00000000E+00  0.00000000E+00  0.00000000E+00
  0.00000000E+00  0.00000000E+00  0.00000000E+00
  0.00000000E+00  0.00000000E+00  0.00000000E+00
  0.00000000E+00  0.00000000E+00  0.00000000E+00
  0.00000000E+00  0.00000000E+00  0.00000000E+00
  0.00000000E+00  0.00000000E+00  0.00000000E+00
  0.00000000E+00  0.00000000E+00  0.00000000E+00
  0.00000000E+00  0.00000000E+00  0.00000000E+00
  0.00000000E+00  0.00000000E+00  0.00000000E+00
  0.00000000E+00  0.00000000E+00  0.00000000E+00
  0.00000000E+00  0.00000000E+00  0.00000000E+00
  0.00000000E+00  0.00000000E+00  0.00000000E+00
  0.00000000E+00  0.00000000E+00  0.00000000E+00
  0.00000000E+00  0.00000000E+00  0.00000000E+00
  0.00000000E+00  0.00000000E+00  0.00000000E+00
  0.00000000E+00  0.00000000E+00  0.00000000E+00
  0.00000000E+00  0.00000000E+00  0.00000000E+00
  0.00000000E+00  0.00000000E+00  0.00000000E+00
  0.00000000E+00  0.00000000E+00  0.00000000E+00
  0.00000000E+00  0.00000000E+00  0.00000000E+00
  0.00000000E+00  0.00000000E+00  0.00000000E+00
  0.00000000E+00  0.00000000E+00  0.00000000E+00
  0.00000000E+00  0.00000000E+00  0.00000000E+00
  0.00000000E+00  0.00000000E+00  0.00000000E+00
  0.00000000E+00  0.00000000E+00  0.00000000E+00
  0.00000000E+00  0.00000000E+00  0.00000000E+00
  0.00000000E+00  0.00000000E+00  0.00000000E+00
  0.00000000E+00  0.00000000E+00  0.00000000E+00
  0.00000000E+00  0.00000000E+00  0.00000000E+00
  0.00000000E+00  0.00000000E+00  0.00000000E+00
  0.00000000E+00  0.00000000E+00  0.00000000E+00
  0.00000000E+00  0.00000000E+00  0.00000000E+00
  0.00000000E+00  0.00000000E+00  0.00000000E+00
  0.00000000E+00  0.00000000E+00  0.00000000E+00
  0.00000000E+00  0.00000000E+00  0.00000000E+00
  0.00000000E+00  0.00000000E+00  0.00000000E+00
  0.00000000E+00  0.00000000E+00  0.00000000E+00
  0.00000000E+00  0.00000000E+00  0.00000000E+00
  0.00000000E+00  0.00000000E+00  0.00000000E+00
  0.00000000E+00  0.00000000E+00  0.00000000E+00
  0.00000000E+00  0.00000000E+00  0.00000000E+00
  0.00000000E+00  0.00000000E+00  0.00000000E+00
  0.00000000E+00  0.00000000E+00  0.00000000E+00
  0.00000000E+00  0.00000000E+00  0.00000000E+00
  0.00000000E+00  0.00000000E+00  0.00000000E+00
  0.00000000E+00  0.00000000E+00  0.00000000E+00
  0.00000000E+00  0.00000000E+00  0.00000000E+00
  0.00000000E+00  0.00000000E+00  0.00000000E+00
  0.00000000E+00  0.00000000E+00  0.00000000E+00
  0.00000000E+00  0.00000000E+00  0.00000000E+00
  0.00000000E+00  0.00000000E+00  0.00000000E+00
  0.00000000E+00  0.00000000E+00  0.00000000E+00
  0.00000000E+00  0.00000000E+00  0.00000000E+00
  0.00000000E+00  0.00000000E+00  0.00000000E+00
  0.00000000E+00  0.00000000E+00  0.00000000E+00
  0.00000000E+00  0.00000000E+00  0.00000000E+00
