CeO2                                    
   1.00000000000000     
    15.5262002945000006    0.0000000000000000    0.0000000000000000
    -7.7632192797000004   13.4460007816000005    0.0000000000000000
     0.0000000000000000    0.0000000000000000   22.9232006073000001
   Ce   O    Ni   C    H 
    48    94    10     1     4
Direct
  0.0000326162375487  0.9941159297735689  0.0303658258457922
  0.3327706468773954  0.1584831674012925  0.1700703193266103
  0.1571160157204158  0.3218887911389102  0.3109989426609058
  0.9994405620432190  0.2434900188110480  0.0309454750259076
  0.3310713983183874  0.4097069198639710  0.1673815103263644
  0.1648973943209334  0.0707114783080484  0.3160150516513726
  0.2494120287942624  0.2430937654858311  0.0301119686228476
  0.0831950756605107  0.4113546968939906  0.1705237624559351
  0.4099772444428180  0.0609276671914919  0.3102548938629324
  0.2500505065613706  0.9941331464865004  0.0293849982413389
  0.0835679563185965  0.1593991687204323  0.1711322111202355
  0.4097244417581580  0.3271128891996800  0.3035301415913609
  0.5011761353346327  0.9943919836144275  0.0300054756098844
  0.8334293136495997  0.1605771922940956  0.1706853606498073
  0.6783201179352897  0.3310384539825215  0.3102880801711174
  0.5001395537344431  0.2430367624660646  0.0299357078301720
  0.8344317758390717  0.4120408973265040  0.1692704514413632
  0.6676663512994337  0.0766023799598693  0.3104317464247072
  0.7497948026957446  0.2433841785747196  0.0304861996071205
  0.5837825003981750  0.4096189521369611  0.1677736541197063
  0.9150362729891096  0.0744709184152612  0.3104892060825740
  0.7503839240930656  0.9939196457377848  0.0306370135159776
  0.5828272871592216  0.1606305557995181  0.1714326109963756
  0.9169474731848071  0.3267147355210112  0.3113662002728625
  0.9997197247017856  0.4929614577014698  0.0292435290083968
  0.3319400618234478  0.6609404198551703  0.1677947234189008
  0.1676488835688861  0.8262370714402558  0.3116654451907952
  0.0010760995512540  0.7443807561354969  0.0281342192460243
  0.3334947680485129  0.9094452365689533  0.1678362283518810
  0.1657182680418115  0.5805775512466349  0.3160796958063641
  0.2499866826079882  0.7436267201723025  0.0281977738853785
  0.0846110510126282  0.9105731568914858  0.1698222685111578
  0.4100383912797207  0.5791262841838107  0.3032467813466873
  0.2490147257228755  0.4929787664082332  0.0290243984567732
  0.0845218495377133  0.6607959386915822  0.1689924209725050
  0.4154801055489833  0.8285980482318676  0.3107544352792300
  0.5002625698031969  0.4934454892869898  0.0289007528607583
  0.8372633018374770  0.6617596750887245  0.1666845265293601
  0.6686869423398157  0.8297563067360272  0.3116458616231501
  0.5001462182395542  0.7441529394172542  0.0288603575190722
  0.8332285764668115  0.9085412274643918  0.1702949867474749
  0.6760305404951974  0.5817991305283849  0.3018872790405128
  0.7509397905431239  0.7445951296691744  0.0287296972578370
  0.5827104286717916  0.9091091199311458  0.1700303941068698
  0.9258389980152421  0.5820550365337107  0.3115510854392827
  0.7505968046073980  0.4931933645418573  0.0285320088638647
  0.5836351737240711  0.6604503978794382  0.1671738806757311
  0.9228045380912404  0.8302560088574445  0.3111058926275698
  0.1665680994997610  0.3271028052520155  0.9946722372603414
  0.0012159429425961  0.9940905731148054  0.1345904260264095
  0.3421934300612148  0.1655842089924063  0.2817958019257908
  0.4168710632127189  0.3270681463631610  0.9946202133525955
  0.2496259458921601  0.9930965434587290  0.1324095476267167
  0.0841383522602070  0.1622747936309822  0.2771171829487253
  0.4172338782845668  0.0778986623867909  0.9946368215595252
  0.2482399675617210  0.2429752747775104  0.1337672821564065
  0.0854068265450420  0.4089644688424880  0.2779416287267706
  0.1670908258085733  0.0782310321890381  0.9946165512941645
  0.9980864606608230  0.2424431796958894  0.1355920401411574
  0.3265964652447565  0.4079008495447619  0.2743067699192824
  0.0827368419877693  0.1605112053856718  0.0661416860698739
  0.4159873304926598  0.3272211357295059  0.2008498672171533
  0.2415416506703844  0.9753390413239633  0.3507756752616706
  0.3333426470617704  0.1605656447596493  0.0660732723592870
  0.1644735883976758  0.3261351044912434  0.2053445658678661
  0.9897072264324207  0.9845314379019554  0.3494021369545554
  0.3332146690206673  0.4100963636600092  0.0653098005699832
  0.1708275545508669  0.0775844990746261  0.2061526375767838
  0.9983938287695552  0.2424038139178707  0.3476538493242292
  0.0817585715876365  0.4088970012655380  0.0658402453742188
  0.4152333950362488  0.0750246871422006  0.2033967745785064
  0.2450779959132749  0.2502990687748550  0.3650681964190151
  0.6666778442626713  0.3266992026376790  0.9940490636332023
  0.5015271687585969  0.9942952649523974  0.1334383596124256
  0.8363001008405463  0.1614808697856703  0.2723619599898608
  0.9163576607689836  0.3260945383832328  0.9943542242838326
  0.7499665658096943  0.9943747292976801  0.1350174815435974
  0.5814860778439686  0.1639224017195030  0.2802101604891378
  0.9162128003923984  0.0768192553385442  0.9951766230370399
  0.7501357098499861  0.2441626670287212  0.1349973186589549
  0.5808863514845767  0.4154318131709635  0.2796896811218107
  0.6669365227976516  0.0778681102070191  0.9947448182946487
  0.5006351928597987  0.2430951533769857  0.1338509650491359
  0.8360407460344127  0.4185788398522339  0.2754666602547486
  0.5837998506108459  0.1607314299978509  0.0661637767563510
  0.9174377177724391  0.3304981111741634  0.2072906657970756
  0.7555582152658059  0.0026777890275850  0.3459982602230928
  0.8331487179921928  0.1604794370320432  0.0661406575352984
  0.6674142172999364  0.3296950430822276  0.2047257920468733
  0.5040903409464395  0.9852062733123769  0.3484677112070941
  0.8334477127819854  0.4096895566967595  0.0650288184321515
  0.6649437574796835  0.0782039779737227  0.2077967358818230
  0.5837967051351632  0.4093539891201425  0.0654617661611796
  0.9167600104056853  0.0737204551797628  0.2068726921948796
  0.7600659455476185  0.2424647726417475  0.3472474622727849
  0.1668277005331389  0.8277549781945517  0.9927114206884876
  0.9994805786254632  0.4941508117281331  0.1330483148354679
  0.3346473614122676  0.6634432720189495  0.2739575088300441
  0.4171716254728452  0.8272428555012320  0.9933603486302792
  0.2479499418487995  0.4926371386176435  0.1325250399317061
  0.0826682530845129  0.6620603546742674  0.2751695651796847
  0.4162809806984503  0.5758879886592291  0.9939247281273853
  0.2493485867142038  0.7431180306407318  0.1317612933149572
  0.0792227936860926  0.9055754135594888  0.2741231775663507
  0.1659329259399726  0.5750879004017775  0.9936918278769802
  0.0016408963987237  0.7443720562627831  0.1316688232756732
  0.3326135128450921  0.9045399999879665  0.2711635089414886
  0.0836498653416204  0.6607261507435623  0.0635328513571455
  0.4167790869546601  0.8261142670874443  0.2029071068730501
  0.2512446100204292  0.4852893280702354  0.3669046931949393
  0.3330669148442471  0.6606395350519119  0.0638317533764385
  0.1667423401424018  0.8269282821307271  0.2040201854576600
  0.9918298747791907  0.4936953006479962  0.3496013315207302
  0.3336624165474841  0.9098476491922955  0.0643542499492960
  0.1657585847510246  0.5767717320429941  0.2038552974084011
  0.9986233958440927  0.7410792665911390  0.3483443527800399
  0.0833580802447520  0.9109302719064446  0.0641022798441376
  0.4160831644656339  0.5773723833162816  0.1994350263704703
  0.2574259219536798  0.7539516545299318  0.3499696777077563
  0.6685551748151894  0.8281722316854189  0.9939361224655373
  0.5021063866471630  0.4944651584590769  0.1324782570994150
  0.8340704708890170  0.6596617950111959  0.2753539563168932
  0.9165896597061927  0.8279111307655704  0.9933143254595485
  0.7521313785515384  0.4940762712008365  0.1320999552916489
  0.5817191461777559  0.6477591886701977  0.2762583411897545
  0.9162963418208697  0.5760311518573940  0.9932090951716691
  0.7508372267273605  0.7427557085236480  0.1321542457097687
  0.5806151219244992  0.9071396402089664  0.2732624246035427
  0.6663095773109472  0.5755760837615679  0.9939717487749781
  0.5004862300096733  0.7442864957669634  0.1319157128973571
  0.8349733047291809  0.9047189879192162  0.2749671897975178
  0.5836190208367475  0.6609415323651627  0.0638867689985597
  0.9169013991655534  0.8245787770382944  0.2044607408789270
  0.7392444725634272  0.4976810639679281  0.3648735465169413
  0.8345242931468624  0.6611618877925707  0.0636074895198591
  0.6658853375717771  0.8227709369188019  0.2037235686104427
  0.8338914621544240  0.9106736451346183  0.0661402061990620
  0.6709909458592045  0.5768186983549617  0.2018752628979074
  0.9190626322244700  0.5799863207650481  0.2049306360445089
  0.5840097188516994  0.9107124903150018  0.0645739238648044
  0.7482208687591841  0.7329803859123767  0.3616658379564596
  0.4980328384302423  0.7448627571075375  0.3602735803175219
  0.5166912322336297  0.6744440202803935  0.4171587252865230
  0.6600943918804313  0.6595063861810524  0.4207904377088461
  0.4590609222284208  0.5938093665985356  0.5026082044816803
  0.4902362458068767  0.5086785656687637  0.4173814723983556
  0.6466280442636156  0.4906393139923508  0.4182228142082287
  0.4897268802625742  0.3708567835551190  0.4571782455248937
  0.5823451172372969  0.5407040723574829  0.5002608556877298
  0.3268226113073994  0.4865275004535059  0.4290051509629661
  0.3917708782825151  0.4230448807478502  0.5080278483533536
  0.3266700367101952  0.3317953967828240  0.4218758835250299
  0.5172596833596301  0.8856898160060204  0.5012668238231973
  0.4375121079185293  0.8336497034339676  0.4983018165310313
  0.5554190143745679  0.8464836718980207  0.5156603392011222
  0.5309065871576862  0.9438792175105153  0.5326793956925857
  0.5451335894720751  0.9186973102435755  0.4585740227864267
 
  0.00000000E+00  0.00000000E+00  0.00000000E+00
  0.00000000E+00  0.00000000E+00  0.00000000E+00
  0.00000000E+00  0.00000000E+00  0.00000000E+00
  0.00000000E+00  0.00000000E+00  0.00000000E+00
  0.00000000E+00  0.00000000E+00  0.00000000E+00
  0.00000000E+00  0.00000000E+00  0.00000000E+00
  0.00000000E+00  0.00000000E+00  0.00000000E+00
  0.00000000E+00  0.00000000E+00  0.00000000E+00
  0.00000000E+00  0.00000000E+00  0.00000000E+00
  0.00000000E+00  0.00000000E+00  0.00000000E+00
  0.00000000E+00  0.00000000E+00  0.00000000E+00
  0.00000000E+00  0.00000000E+00  0.00000000E+00
  0.00000000E+00  0.00000000E+00  0.00000000E+00
  0.00000000E+00  0.00000000E+00  0.00000000E+00
  0.00000000E+00  0.00000000E+00  0.00000000E+00
  0.00000000E+00  0.00000000E+00  0.00000000E+00
  0.00000000E+00  0.00000000E+00  0.00000000E+00
  0.00000000E+00  0.00000000E+00  0.00000000E+00
  0.00000000E+00  0.00000000E+00  0.00000000E+00
  0.00000000E+00  0.00000000E+00  0.00000000E+00
  0.00000000E+00  0.00000000E+00  0.00000000E+00
  0.00000000E+00  0.00000000E+00  0.00000000E+00
  0.00000000E+00  0.00000000E+00  0.00000000E+00
  0.00000000E+00  0.00000000E+00  0.00000000E+00
  0.00000000E+00  0.00000000E+00  0.00000000E+00
  0.00000000E+00  0.00000000E+00  0.00000000E+00
  0.00000000E+00  0.00000000E+00  0.00000000E+00
  0.00000000E+00  0.00000000E+00  0.00000000E+00
  0.00000000E+00  0.00000000E+00  0.00000000E+00
  0.00000000E+00  0.00000000E+00  0.00000000E+00
  0.00000000E+00  0.00000000E+00  0.00000000E+00
  0.00000000E+00  0.00000000E+00  0.00000000E+00
  0.00000000E+00  0.00000000E+00  0.00000000E+00
  0.00000000E+00  0.00000000E+00  0.00000000E+00
  0.00000000E+00  0.00000000E+00  0.00000000E+00
  0.00000000E+00  0.00000000E+00  0.00000000E+00
  0.00000000E+00  0.00000000E+00  0.00000000E+00
  0.00000000E+00  0.00000000E+00  0.00000000E+00
  0.00000000E+00  0.00000000E+00  0.00000000E+00
  0.00000000E+00  0.00000000E+00  0.00000000E+00
  0.00000000E+00  0.00000000E+00  0.00000000E+00
  0.00000000E+00  0.00000000E+00  0.00000000E+00
  0.00000000E+00  0.00000000E+00  0.00000000E+00
  0.00000000E+00  0.00000000E+00  0.00000000E+00
  0.00000000E+00  0.00000000E+00  0.00000000E+00
  0.00000000E+00  0.00000000E+00  0.00000000E+00
  0.00000000E+00  0.00000000E+00  0.00000000E+00
  0.00000000E+00  0.00000000E+00  0.00000000E+00
  0.00000000E+00  0.00000000E+00  0.00000000E+00
  0.00000000E+00  0.00000000E+00  0.00000000E+00
  0.00000000E+00  0.00000000E+00  0.00000000E+00
  0.00000000E+00  0.00000000E+00  0.00000000E+00
  0.00000000E+00  0.00000000E+00  0.00000000E+00
  0.00000000E+00  0.00000000E+00  0.00000000E+00
  0.00000000E+00  0.00000000E+00  0.00000000E+00
  0.00000000E+00  0.00000000E+00  0.00000000E+00
  0.00000000E+00  0.00000000E+00  0.00000000E+00
  0.00000000E+00  0.00000000E+00  0.00000000E+00
  0.00000000E+00  0.00000000E+00  0.00000000E+00
  0.00000000E+00  0.00000000E+00  0.00000000E+00
  0.00000000E+00  0.00000000E+00  0.00000000E+00
  0.00000000E+00  0.00000000E+00  0.00000000E+00
  0.00000000E+00  0.00000000E+00  0.00000000E+00
  0.00000000E+00  0.00000000E+00  0.00000000E+00
  0.00000000E+00  0.00000000E+00  0.00000000E+00
  0.00000000E+00  0.00000000E+00  0.00000000E+00
  0.00000000E+00  0.00000000E+00  0.00000000E+00
  0.00000000E+00  0.00000000E+00  0.00000000E+00
  0.00000000E+00  0.00000000E+00  0.00000000E+00
  0.00000000E+00  0.00000000E+00  0.00000000E+00
  0.00000000E+00  0.00000000E+00  0.00000000E+00
  0.00000000E+00  0.00000000E+00  0.00000000E+00
  0.00000000E+00  0.00000000E+00  0.00000000E+00
  0.00000000E+00  0.00000000E+00  0.00000000E+00
  0.00000000E+00  0.00000000E+00  0.00000000E+00
  0.00000000E+00  0.00000000E+00  0.00000000E+00
  0.00000000E+00  0.00000000E+00  0.00000000E+00
  0.00000000E+00  0.00000000E+00  0.00000000E+00
  0.00000000E+00  0.00000000E+00  0.00000000E+00
  0.00000000E+00  0.00000000E+00  0.00000000E+00
  0.00000000E+00  0.00000000E+00  0.00000000E+00
  0.00000000E+00  0.00000000E+00  0.00000000E+00
  0.00000000E+00  0.00000000E+00  0.00000000E+00
  0.00000000E+00  0.00000000E+00  0.00000000E+00
  0.00000000E+00  0.00000000E+00  0.00000000E+00
  0.00000000E+00  0.00000000E+00  0.00000000E+00
  0.00000000E+00  0.00000000E+00  0.00000000E+00
  0.00000000E+00  0.00000000E+00  0.00000000E+00
  0.00000000E+00  0.00000000E+00  0.00000000E+00
  0.00000000E+00  0.00000000E+00  0.00000000E+00
  0.00000000E+00  0.00000000E+00  0.00000000E+00
  0.00000000E+00  0.00000000E+00  0.00000000E+00
  0.00000000E+00  0.00000000E+00  0.00000000E+00
  0.00000000E+00  0.00000000E+00  0.00000000E+00
  0.00000000E+00  0.00000000E+00  0.00000000E+00
  0.00000000E+00  0.00000000E+00  0.00000000E+00
  0.00000000E+00  0.00000000E+00  0.00000000E+00
  0.00000000E+00  0.00000000E+00  0.00000000E+00
  0.00000000E+00  0.00000000E+00  0.00000000E+00
  0.00000000E+00  0.00000000E+00  0.00000000E+00
  0.00000000E+00  0.00000000E+00  0.00000000E+00
  0.00000000E+00  0.00000000E+00  0.00000000E+00
  0.00000000E+00  0.00000000E+00  0.00000000E+00
  0.00000000E+00  0.00000000E+00  0.00000000E+00
  0.00000000E+00  0.00000000E+00  0.00000000E+00
  0.00000000E+00  0.00000000E+00  0.00000000E+00
  0.00000000E+00  0.00000000E+00  0.00000000E+00
  0.00000000E+00  0.00000000E+00  0.00000000E+00
  0.00000000E+00  0.00000000E+00  0.00000000E+00
  0.00000000E+00  0.00000000E+00  0.00000000E+00
  0.00000000E+00  0.00000000E+00  0.00000000E+00
  0.00000000E+00  0.00000000E+00  0.00000000E+00
  0.00000000E+00  0.00000000E+00  0.00000000E+00
  0.00000000E+00  0.00000000E+00  0.00000000E+00
  0.00000000E+00  0.00000000E+00  0.00000000E+00
  0.00000000E+00  0.00000000E+00  0.00000000E+00
  0.00000000E+00  0.00000000E+00  0.00000000E+00
  0.00000000E+00  0.00000000E+00  0.00000000E+00
  0.00000000E+00  0.00000000E+00  0.00000000E+00
  0.00000000E+00  0.00000000E+00  0.00000000E+00
  0.00000000E+00  0.00000000E+00  0.00000000E+00
  0.00000000E+00  0.00000000E+00  0.00000000E+00
  0.00000000E+00  0.00000000E+00  0.00000000E+00
  0.00000000E+00  0.00000000E+00  0.00000000E+00
  0.00000000E+00  0.00000000E+00  0.00000000E+00
  0.00000000E+00  0.00000000E+00  0.00000000E+00
  0.00000000E+00  0.00000000E+00  0.00000000E+00
  0.00000000E+00  0.00000000E+00  0.00000000E+00
  0.00000000E+00  0.00000000E+00  0.00000000E+00
  0.00000000E+00  0.00000000E+00  0.00000000E+00
  0.00000000E+00  0.00000000E+00  0.00000000E+00
  0.00000000E+00  0.00000000E+00  0.00000000E+00
  0.00000000E+00  0.00000000E+00  0.00000000E+00
  0.00000000E+00  0.00000000E+00  0.00000000E+00
  0.00000000E+00  0.00000000E+00  0.00000000E+00
  0.00000000E+00  0.00000000E+00  0.00000000E+00
  0.00000000E+00  0.00000000E+00  0.00000000E+00
  0.00000000E+00  0.00000000E+00  0.00000000E+00
  0.00000000E+00  0.00000000E+00  0.00000000E+00
  0.00000000E+00  0.00000000E+00  0.00000000E+00
  0.00000000E+00  0.00000000E+00  0.00000000E+00
  0.00000000E+00  0.00000000E+00  0.00000000E+00
  0.00000000E+00  0.00000000E+00  0.00000000E+00
  0.00000000E+00  0.00000000E+00  0.00000000E+00
  0.00000000E+00  0.00000000E+00  0.00000000E+00
  0.00000000E+00  0.00000000E+00  0.00000000E+00
  0.00000000E+00  0.00000000E+00  0.00000000E+00
  0.00000000E+00  0.00000000E+00  0.00000000E+00
  0.00000000E+00  0.00000000E+00  0.00000000E+00
  0.00000000E+00  0.00000000E+00  0.00000000E+00
  0.00000000E+00  0.00000000E+00  0.00000000E+00
  0.00000000E+00  0.00000000E+00  0.00000000E+00
  0.00000000E+00  0.00000000E+00  0.00000000E+00
  0.00000000E+00  0.00000000E+00  0.00000000E+00
  0.00000000E+00  0.00000000E+00  0.00000000E+00
  0.00000000E+00  0.00000000E+00  0.00000000E+00
  0.00000000E+00  0.00000000E+00  0.00000000E+00
