CeO2                                    
   1.00000000000000     
    15.5262002945000006    0.0000000000000000    0.0000000000000000
    -7.7632192797000004   13.4460007816000005    0.0000000000000000
     0.0000000000000000    0.0000000000000000   22.9232006073000001
   Ce   O    Ni   C    H 
    48    94    10     1     4
Selective dynamics
Direct
  0.0000000000000000  0.0000000000000000  0.0345700019630755   F   F   F
  0.3328332152797273  0.1652585221687985  0.1745112323828053   T   T   T
  0.1570096693535419  0.3286808345893562  0.3154263479034043   T   T   T
  0.0000100572949933  0.2500000644801403  0.0345700019630755   F   F   F
  0.3307808096749625  0.4157621601252970  0.1720455443335211   T   T   T
  0.1650706510105024  0.0779169652870024  0.3203918280367120   T   T   T
  0.2500000620611331  0.2500000644801403  0.0345700019630755   F   F   F
  0.0829386266196792  0.4173738679231604  0.1746432134314801   T   T   T
  0.4098850754816823  0.0676922575528707  0.3151405983490534   T   T   T
  0.2500000047661359  0.0000000000000000  0.0345700019630755   F   F   F
  0.0835022643558787  0.1658003786822135  0.1750802708255677   T   T   T
  0.4090362615053706  0.3340901642365566  0.3092219075495137   T   T   T
  0.5000000094678683  0.0000000000000000  0.0345700019630755   F   F   F
  0.8335595420534503  0.1667673344595144  0.1745309166545823   T   T   T
  0.6782825184663324  0.3363581712636332  0.3144346931153237   T   T   T
  0.5000100803527943  0.2500000644801403  0.0345700019630755   F   F   F
  0.8340915047896331  0.4178400609458421  0.1736772486383487   T   T   T
  0.6672279820040643  0.0826861503091507  0.3148708859586833   T   T   T
  0.7500000715290014  0.2500000644801403  0.0345700019630755   F   F   F
  0.5832141005728033  0.4157104356489185  0.1726273096104549   T   T   T
  0.9147990930438397  0.0813158944042911  0.3150932012225951   T   T   T
  0.7500000142340042  0.0000000000000000  0.0345700019630755   F   F   F
  0.5827298653766277  0.1666684202853190  0.1753450323986243   T   T   T
  0.9167025265715978  0.3325489225638094  0.3155877826439379   T   T   T
  0.0000001146543980  0.5000001289602878  0.0345700019630755   F   F   F
  0.3314837491940921  0.6677406599879490  0.1727658585736052   T   T   T
  0.1671725139563662  0.8328639000908424  0.3163715943371699   T   T   T
  0.0000101719122014  0.7500001933660556  0.0345700019630755   F   F   F
  0.3334526265577082  0.9164111158093959  0.1726527370200870   T   T   T
  0.1649657888310117  0.5867165725210910  0.3204690954753318   T   T   T
  0.2500001766139306  0.7500001933660556  0.0345700019630755   F   F   F
  0.0843037008026428  0.9172207610758747  0.1744329305924808   T   T   T
  0.4099895025738647  0.5860026054630509  0.3066978979164503   T   T   T
  0.2500001193561232  0.5000001289602878  0.0345700019630755   F   F   F
  0.0838146321852449  0.6668502715254263  0.1742431711082730   T   T   T
  0.4147552757556596  0.8354301996619640  0.3154748751878671   T   T   T
  0.5000001241222591  0.5000001289602878  0.0345700019630755   F   F   F
  0.8365153634941720  0.6680254461122104  0.1721760836507329   T   T   T
  0.6673838724197410  0.8362420440430611  0.3171357791216636   T   T   T
  0.5000101949700024  0.7500001933660556  0.0345700019630755   F   F   F
  0.8328289480040354  0.9151925606386015  0.1748045723694389   T   T   T
  0.6754236840074839  0.5884619009899623  0.3070590070835451   T   T   T
  0.7500001861462096  0.7500001933660556  0.0345700019630755   F   F   F
  0.5826807033045043  0.9158482532965238  0.1744646586575911   T   T   T
  0.9246753631255018  0.5875175276304248  0.3164035325375636   T   T   T
  0.7500001288239915  0.5000001289602878  0.0345700019630755   F   F   F
  0.5832249532142626  0.6672208409572349  0.1722657525982996   T   T   T
  0.9232797008852955  0.8379032781095859  0.3157218852745487   T   T   T
  0.1666700741286604  0.3333400751152737  0.0000000000000000   F   F   F
  0.0006366966073585  0.9998595138035569  0.1389247169837304   T   T   T
  0.3418688871815760  0.1726805655107242  0.2866146733049391   T   T   T
  0.4166700788947963  0.3333400751152737  0.0000000000000000   F   F   F
  0.2495152273491570  0.0000453592871850  0.1376058057365981   T   T   T
  0.0849994280016588  0.1698261767536806  0.2817572570206437   T   T   T
  0.4166700216200070  0.0833400181466573  0.0000000000000000   F   F   F
  0.2488303382220280  0.2495667681152440  0.1380264039828560   T   T   T
  0.0854730159378221  0.4152839437894187  0.2820645351035296   T   T   T
  0.1666700168538711  0.0833400181466573  0.0000000000000000   F   F   F
  0.9983580878319316  0.2489269643984002  0.1392524898266387   T   T   T
  0.3275605867578193  0.4153168613498650  0.2781288433280409   T   T   T
  0.0833400363880514  0.1666700375576369  0.0691300052784953   F   F   F
  0.4164053519644355  0.3333752415602689  0.2061642398182570   T   T   T
  0.2417530119552893  0.9827774292841838  0.3551268183122716   T   T   T
  0.3333400336829513  0.1666700375576369  0.0691300052784953   F   F   F
  0.1641778302187475  0.3319650428731009  0.2095426644901650   T   T   T
  0.9899246406147668  0.9924641845702524  0.3540776716400273   T   T   T
  0.3333400910423521  0.4166701020377843  0.0691300052784953   F   F   F
  0.1701479308348013  0.0847816770260366  0.2105267277062381   T   T   T
  0.9977469368591159  0.2488597056291582  0.3522367074694444   T   T   T
  0.0833400937474522  0.4166701020377843  0.0691300052784953   F   F   F
  0.4156008413857748  0.0826111938580070  0.2077332360298243   T   T   T
  0.2476305167331887  0.2612081686647301  0.3704852074547560   T   T   T
  0.6666701134170907  0.3333400751152737  0.0000000000000000   F   F   F
  0.5015044355113929  0.0012197852037801  0.1379871731010383   T   T   T
  0.8362812113546596  0.1671739986192691  0.2765060426599604   T   T   T
  0.9166701181832266  0.3333400751152737  0.0000000000000000   F   F   F
  0.7505102036791200  0.0007302082419329  0.1396123755073830   T   T   T
  0.5817515308884964  0.1696682864675978  0.2842833346911888   T   T   T
  0.9166700609084302  0.0833400181466573  0.0000000000000000   F   F   F
  0.7504279930122308  0.2503281612817858  0.1390906087372699   T   T   T
  0.5814644511056528  0.4221717901977016  0.2856938764083665   T   T   T
  0.6666700561422942  0.0833400181466573  0.0000000000000000   F   F   F
  0.5007421597905122  0.2502481436131063  0.1381834197342187   T   T   T
  0.8358775745026534  0.4238646714068537  0.2795091536928780   T   T   T
  0.5833400384490872  0.1666700375576369  0.0691300052784953   F   F   F
  0.9176095127320636  0.3363016371628618  0.2114163121560537   T   T   T
  0.7550214747616337  0.0089717836968717  0.3507620587098117   T   T   T
  0.8333400432152231  0.1666700375576369  0.0691300052784953   F   F   F
  0.6666973833449958  0.3355845338710424  0.2092012088709509   T   T   T
  0.5032434402134385  0.9918578252962575  0.3534982079095883   T   T   T
  0.8333401005102203  0.4166701020377843  0.0691300052784953   F   F   F
  0.6652612563809868  0.0845877943112896  0.2117865956909242   T   T   T
  0.5833400957440773  0.4166701020377843  0.0691300052784953   F   F   F
  0.9175989146767733  0.0805634416303391  0.2115031732406862   T   T   T
  0.7600522577845084  0.2485065779574356  0.3515265084825145   T   T   T
  0.1666701887830584  0.8333402040755615  0.0000000000000000   F   F   F
  0.9987924099573178  0.4998248929786726  0.1378957674303791   T   T   T
  0.3339057446550768  0.6713221838550112  0.2782633416697848   T   T   T
  0.4166701934847836  0.8333402040755615  0.0000000000000000   F   F   F
  0.2475361857309935  0.4983103963708260  0.1374534374421330   T   T   T
  0.0817909376388783  0.6680500378965206  0.2800821444100166   T   T   T
  0.4166701361897935  0.5833401395954212  0.0000000000000000   F   F   F
  0.2490507873862384  0.7498322805963298  0.1373870038930036   T   T   T
  0.0790550219741206  0.9129527580883305  0.2790408860923321   T   T   T
  0.1666701314880612  0.5833401395954212  0.0000000000000000   F   F   F
  0.0003134219780989  0.7502606920426445  0.1375388785364180   T   T   T
  0.3325190775004927  0.9114199208293456  0.2756394073895763   T   T   T
  0.0833401510389109  0.6666701962665442  0.0691300052784953   F   F   F
  0.4166418615501257  0.8331854390506663  0.2069914414845471   T   T   T
  0.2499030932318931  0.4897017839071722  0.3704209605901525   T   T   T
  0.3333401482694001  0.6666701962665442  0.0691300052784953   F   F   F
  0.1662561964799352  0.8334098351167825  0.2090863049082259   T   T   T
  0.9906588082149170  0.4990685229495853  0.3541187022367893   T   T   T
  0.3333402056288008  0.9166702607466917  0.0691300052784953   F   F   F
  0.1644868539461157  0.5825708700193815  0.2085926406459038   T   T   T
  0.9979705166055481  0.7486302033921959  0.3526801486819124   T   T   T
  0.0833402083339081  0.9166702607466917  0.0691300052784953   F   F   F
  0.4152894950876842  0.5842606469171656  0.2037063585278531   T   T   T
  0.2555549026722090  0.7606931248754734  0.3544253793900936   T   T   T
  0.6666702280714816  0.8333402040755615  0.0000000000000000   F   F   F
  0.5009489441979866  0.5000383320829869  0.1377941813179859   T   T   T
  0.8327962718336508  0.6666956026357909  0.2807102514247575   T   T   T
  0.9166702327732139  0.8333402040755615  0.0000000000000000   F   F   F
  0.7510424272890290  0.5000298828300487  0.1373408092100092   T   T   T
  0.5810549157753115  0.6539316317832800  0.2806773481828913   T   T   T
  0.9166701754782238  0.5833401395954212  0.0000000000000000   F   F   F
  0.7505653483692782  0.7497632230982632  0.1375412889269469   T   T   T
  0.5799296108727816  0.9144591104964022  0.2781412915854702   T   T   T
  0.6666701707764915  0.5833401395954212  0.0000000000000000   F   F   F
  0.5006792120029075  0.7507991920250490  0.1371466816770450   T   T   T
  0.8337373348909978  0.9104290269123396  0.2802360005014535   T   T   T
  0.5833401530355360  0.6666701962665442  0.0691300052784953   F   F   F
  0.9162038385909810  0.8313107098144101  0.2096881137168438   T   T   T
  0.7446173033413785  0.5046946124622806  0.3682471270482282   T   T   T
  0.8333401578016790  0.6666701962665442  0.0691300052784953   F   F   F
  0.6651719462847012  0.8294355629448305  0.2088720766180998   T   T   T
  0.8333402150966691  0.9166702607466917  0.0691300052784953   F   F   F
  0.6704709170930911  0.5830483974330960  0.2070474209504596   T   T   T
  0.9177531180489709  0.5856734983692462  0.2101417421188003   T   T   T
  0.5840702481251228  0.9168302396995358  0.0693399999127493   F   F   F
  0.7416398782938884  0.7372393008097404  0.3683792013462082   T   T   T
  0.4943951785022875  0.7504490196399445  0.3651358547584351   T   T   T
  0.5042671873536761  0.6765522102659460  0.4231858279503982   T   T   T
  0.6540898096842795  0.6660105469126663  0.4273312134107385   T   T   T
  0.5174270550474134  0.6230176798555007  0.5143473744231954   T   T   T
  0.4992676032953867  0.5181491350229450  0.4238169086654295   T   T   T
  0.6494567416927026  0.4873855343596176  0.4210852113576067   T   T   T
  0.4909386903879565  0.3748830479870335  0.4621152887419626   T   T   T
  0.5983163685755741  0.5326898361305155  0.5055826139658635   T   T   T
  0.3340223875933077  0.4900357411929050  0.4265992613486276   T   T   T
  0.4097396413820107  0.4512943411236137  0.5101113648853399   T   T   T
  0.3214011288807086  0.3269084335253467  0.4335610220742296   T   T   T
  0.5278358176228792  0.6887627726540444  0.5868459913716180   T   T   T
  0.4649343463306934  0.7020287817436710  0.5865624132357397   T   T   T
  0.5986222735267148  0.7587340539464691  0.5861653465335479   T   T   T
  0.5238226450452288  0.6436945401308876  0.6243460850994467   T   T   T
  0.3677146646849110  0.3299438167527882  0.4986456686614744   T   T   T
 
             NaN             NaN             NaN
             NaN             NaN             NaN
             NaN             NaN             NaN
             NaN             NaN             NaN
             NaN             NaN             NaN
             NaN             NaN             NaN
             NaN             NaN             NaN
             NaN             NaN             NaN
             NaN             NaN             NaN
             NaN             NaN             NaN
             NaN             NaN             NaN
             NaN             NaN             NaN
             NaN             NaN             NaN
             NaN             NaN             NaN
             NaN             NaN             NaN
             NaN             NaN             NaN
             NaN             NaN             NaN
             NaN             NaN             NaN
             NaN             NaN             NaN
             NaN             NaN             NaN
             NaN             NaN             NaN
             NaN             NaN             NaN
             NaN             NaN             NaN
             NaN             NaN             NaN
             NaN             NaN             NaN
             NaN             NaN             NaN
             NaN             NaN             NaN
             NaN             NaN             NaN
             NaN             NaN             NaN
             NaN             NaN             NaN
             NaN             NaN             NaN
             NaN             NaN             NaN
             NaN             NaN             NaN
             NaN             NaN             NaN
             NaN             NaN             NaN
             NaN             NaN             NaN
             NaN             NaN             NaN
             NaN             NaN             NaN
             NaN             NaN             NaN
             NaN             NaN             NaN
             NaN             NaN             NaN
             NaN             NaN             NaN
             NaN             NaN             NaN
             NaN             NaN             NaN
             NaN             NaN             NaN
             NaN             NaN             NaN
             NaN             NaN             NaN
             NaN             NaN             NaN
             NaN             NaN             NaN
             NaN             NaN             NaN
             NaN             NaN             NaN
             NaN             NaN             NaN
             NaN             NaN             NaN
             NaN             NaN             NaN
             NaN             NaN             NaN
             NaN             NaN             NaN
             NaN             NaN             NaN
             NaN             NaN             NaN
             NaN             NaN             NaN
             NaN             NaN             NaN
             NaN             NaN             NaN
             NaN             NaN             NaN
             NaN             NaN             NaN
             NaN             NaN             NaN
             NaN             NaN             NaN
             NaN             NaN             NaN
             NaN             NaN             NaN
             NaN             NaN             NaN
             NaN             NaN             NaN
             NaN             NaN             NaN
             NaN             NaN             NaN
             NaN             NaN             NaN
             NaN             NaN             NaN
             NaN             NaN             NaN
             NaN             NaN             NaN
             NaN             NaN             NaN
             NaN             NaN             NaN
             NaN             NaN             NaN
             NaN             NaN             NaN
             NaN             NaN             NaN
             NaN             NaN             NaN
             NaN             NaN             NaN
             NaN             NaN             NaN
             NaN             NaN             NaN
             NaN             NaN             NaN
             NaN             NaN             NaN
             NaN             NaN             NaN
             NaN             NaN             NaN
             NaN             NaN             NaN
             NaN             NaN             NaN
             NaN             NaN             NaN
             NaN             NaN             NaN
             NaN             NaN             NaN
             NaN             NaN             NaN
             NaN             NaN             NaN
             NaN             NaN             NaN
             NaN             NaN             NaN
             NaN             NaN             NaN
             NaN             NaN             NaN
             NaN             NaN             NaN
             NaN             NaN             NaN
             NaN             NaN             NaN
             NaN             NaN             NaN
             NaN             NaN             NaN
             NaN             NaN             NaN
             NaN             NaN             NaN
             NaN             NaN             NaN
             NaN             NaN             NaN
             NaN             NaN             NaN
             NaN             NaN             NaN
             NaN             NaN             NaN
             NaN             NaN             NaN
             NaN             NaN             NaN
             NaN             NaN             NaN
             NaN             NaN             NaN
             NaN             NaN             NaN
             NaN             NaN             NaN
             NaN             NaN             NaN
             NaN             NaN             NaN
             NaN             NaN             NaN
             NaN             NaN             NaN
             NaN             NaN             NaN
             NaN             NaN             NaN
             NaN             NaN             NaN
             NaN             NaN             NaN
             NaN             NaN             NaN
             NaN             NaN             NaN
             NaN             NaN             NaN
             NaN             NaN             NaN
             NaN             NaN             NaN
             NaN             NaN             NaN
             NaN             NaN             NaN
             NaN             NaN             NaN
             NaN             NaN             NaN
             NaN             NaN             NaN
             NaN             NaN             NaN
             NaN             NaN             NaN
             NaN             NaN             NaN
             NaN             NaN             NaN
             NaN             NaN             NaN
             NaN             NaN             NaN
             NaN             NaN             NaN
             NaN             NaN             NaN
             NaN             NaN             NaN
             NaN             NaN             NaN
             NaN             NaN             NaN
             NaN             NaN             NaN
             NaN             NaN             NaN
             NaN             NaN             NaN
             NaN             NaN             NaN
             NaN             NaN             NaN
             NaN             NaN             NaN
             NaN             NaN             NaN
             NaN             NaN             NaN
             NaN             NaN             NaN
             NaN             NaN             NaN
             NaN             NaN             NaN
