System = CeO2   

ISMEAR = 0
SIGMA = 0.1
ISTART = 0
ISPIN = 2
ENCUT  = 500.000 eV
NELM = 300
ISIF   = 2
LDAU = .TRUE.
LDAUTYPE = 2
LDAUL = 3 -1 -1 -1 -1
LDAUU = 5 0 0 0 0
LDAUJ = 0 0 0 0 0
LREAL = Auto
LMAXMIX = 6
IDIPOL = 3
LCORR = .TRUE.
ALGO = Fast
NSIM = 4

#BEEF_vdw
GGA=BF
LUSE_VDW=.TRUE.
Zab_VDW=-1.8867
LBEEFENS=.TRUE.

#dynamical matrix vtst
ICHAIN=1
IBRION=3
POTIM=0
EDIFF=1E-5
NSW=16 #5 atoms * 3 + 1 = 16
