CeO2                                    
   1.00000000000000     
    15.5262002945000006    0.0000000000000000    0.0000000000000000
    -7.7632192797000004   13.4460007816000005    0.0000000000000000
     0.0000000000000000    0.0000000000000000   22.9232006073000001
   Ce   O    Ni   C    H 
    48    94    10     1     4
Selective dynamics
Direct
  0.0000000000000000  0.0000000000000000  0.0345700019630755   F   F   F
  0.3328332152797284  0.1652585221687964  0.1745112323828035   T   T   T
  0.1570096693535423  0.3286808345893580  0.3154263479034043   T   T   T
  0.0000100572949933  0.2500000644801403  0.0345700019630755   F   F   F
  0.3307808096749606  0.4157621601252967  0.1720455443335191   T   T   T
  0.1650706510105051  0.0779169652870045  0.3203918280367118   T   T   T
  0.2500000620611331  0.2500000644801403  0.0345700019630755   F   F   F
  0.0829386266196768  0.4173738679231584  0.1746432134314805   T   T   T
  0.4098850754816816  0.0676922575528714  0.3151405983490507   T   T   T
  0.2500000047661359  0.0000000000000000  0.0345700019630755   F   F   F
  0.0835022643558804  0.1658003786822136  0.1750802708255652   T   T   T
  0.4090362615053698  0.3340901642365586  0.3092219075495110   T   T   T
  0.5000000094678683  0.0000000000000000  0.0345700019630755   F   F   F
  0.8335595420534493  0.1667673344595149  0.1745309166545844   T   T   T
  0.6782825184663351  0.3363581712636317  0.3144346931153218   T   T   T
  0.5000100803527943  0.2500000644801403  0.0345700019630755   F   F   F
  0.8340915047896328  0.4178400609458439  0.1736772486383496   T   T   T
  0.6672279820040611  0.0826861503091488  0.3148708859586853   T   T   T
  0.7500000715290014  0.2500000644801403  0.0345700019630755   F   F   F
  0.5832141005728017  0.4157104356489204  0.1726273096104583   T   T   T
  0.9147990930438412  0.0813158944042946  0.3150932012225925   T   T   T
  0.7500000142340042  0.0000000000000000  0.0345700019630755   F   F   F
  0.5827298653766256  0.1666684202853209  0.1753450323986271   T   T   T
  0.9167025265715968  0.3325489225638082  0.3155877826439400   T   T   T
  0.0000001146543980  0.5000001289602878  0.0345700019630755   F   F   F
  0.3314837491940889  0.6677406599879471  0.1727658585736085   T   T   T
  0.1671725139563657  0.8328639000908449  0.3163715943371672   T   T   T
  0.0000101719122014  0.7500001933660556  0.0345700019630755   F   F   F
  0.3334526265577071  0.9164111158093956  0.1726527370200892   T   T   T
  0.1649657888310126  0.5867165725210877  0.3204690954753349   T   T   T
  0.2500001766139306  0.7500001933660556  0.0345700019630755   F   F   F
  0.0843037008026435  0.9172207610758720  0.1744329305924798   T   T   T
  0.4099895025738614  0.5860026054630523  0.3066978979164487   T   T   T
  0.2500001193561232  0.5000001289602878  0.0345700019630755   F   F   F
  0.0838146321852418  0.6668502715254269  0.1742431711082696   T   T   T
  0.4147552757556571  0.8354301996619665  0.3154748751878697   T   T   T
  0.5000001241222591  0.5000001289602878  0.0345700019630755   F   F   F
  0.8365153634941737  0.6680254461122083  0.1721760836507318   T   T   T
  0.6673838724197422  0.8362420440430627  0.3171357791216659   T   T   T
  0.5000101949700024  0.7500001933660556  0.0345700019630755   F   F   F
  0.8328289480040342  0.9151925606386043  0.1748045723694402   T   T   T
  0.6754236840074813  0.5884619009899604  0.3070590070835463   T   T   T
  0.7500001861462096  0.7500001933660556  0.0345700019630755   F   F   F
  0.5826807033045031  0.9158482532965231  0.1744646586575909   T   T   T
  0.9246753631255000  0.5875175276304212  0.3164035325375639   T   T   T
  0.7500001288239915  0.5000001289602878  0.0345700019630755   F   F   F
  0.5832249532142646  0.6672208409572321  0.1722657525982988   T   T   T
  0.9232797008852975  0.8379032781095858  0.3157218852745493   T   T   T
  0.1666700741286604  0.3333400751152737  0.0000000000000000   F   F   F
  0.0006366966073615 -0.0001404861964428  0.1389247169837317   T   T   T
  0.3418688871815794  0.1726805655107262  0.2866146733049381   T   T   T
  0.4166700788947963  0.3333400751152737  0.0000000000000000   F   F   F
  0.2495152273491584  0.0000453592871835  0.1376058057366015   T   T   T
  0.0849994280016572  0.1698261767536793  0.2817572570206412   T   T   T
  0.4166700216200070  0.0833400181466573  0.0000000000000000   F   F   F
  0.2488303382220259  0.2495667681152450  0.1380264039828549   T   T   T
  0.0854730159378215  0.4152839437894221  0.2820645351035276   T   T   T
  0.1666700168538711  0.0833400181466573  0.0000000000000000   F   F   F
  0.9983580878319346  0.2489269643984032  0.1392524898266355   T   T   T
  0.3275605867578174  0.4153168613498683  0.2781288433280424   T   T   T
  0.0833400363880514  0.1666700375576369  0.0691300052784953   F   F   F
  0.4164053519644387  0.3333752415602675  0.2061642398182538   T   T   T
  0.2417530119552928  0.9827774292841862  0.3551268183122726   T   T   T
  0.3333400336829513  0.1666700375576369  0.0691300052784953   F   F   F
  0.1641778302187458  0.3319650428731032  0.2095426644901619   T   T   T
  0.9899246406147695  0.9924641845702499  0.3540776716400273   T   T   T
  0.3333400910423521  0.4166701020377843  0.0691300052784953   F   F   F
  0.1701479308347983  0.0847816770260335  0.2105267277062375   T   T   T
  0.9977469368591174  0.2488597056291604  0.3522367074694472   T   T   T
  0.0833400937474522  0.4166701020377843  0.0691300052784953   F   F   F
  0.4156008413857725  0.0826111938580055  0.2077332360298242   T   T   T
  0.2476305167331856  0.2612081686647306  0.3704852074547545   T   T   T
  0.6666701134170907  0.3333400751152737  0.0000000000000000   F   F   F
  0.5015044355113951  0.0012197852037820  0.1379871731010385   T   T   T
  0.8362812113546596  0.1671739986192690  0.2765060426599624   T   T   T
  0.9166701181832266  0.3333400751152737  0.0000000000000000   F   F   F
  0.7505102036791189  0.0007302082419358  0.1396123755073816   T   T   T
  0.5817515308884988  0.1696682864675974  0.2842833346911900   T   T   T
  0.9166700609084302  0.0833400181466573  0.0000000000000000   F   F   F
  0.7504279930122276  0.2503281612817857  0.1390906087372701   T   T   T
  0.5814644511056516  0.4221717901976986  0.2856938764083631   T   T   T
  0.6666700561422942  0.0833400181466573  0.0000000000000000   F   F   F
  0.5007421597905123  0.2502481436131051  0.1381834197342192   T   T   T
  0.8358775745026533  0.4238646714068551  0.2795091536928775   T   T   T
  0.5833400384490872  0.1666700375576369  0.0691300052784953   F   F   F
  0.9176095127320608  0.3363016371628617  0.2114163121560544   T   T   T
  0.7550214747616328  0.0089717836968692  0.3507620587098124   T   T   T
  0.8333400432152231  0.1666700375576369  0.0691300052784953   F   F   F
  0.6666973833449937  0.3355845338710420  0.2092012088709490   T   T   T
  0.5032434402134414  0.9918578252962560  0.3534982079095902   T   T   T
  0.8333401005102203  0.4166701020377843  0.0691300052784953   F   F   F
  0.6652612563809884  0.0845877943112883  0.2117865956909207   T   T   T
  0.5833400957440773  0.4166701020377843  0.0691300052784953   F   F   F
  0.9175989146767755  0.0805634416303426  0.2115031732406840   T   T   T
  0.7600522577845100  0.2485065779574368  0.3515265084825177   T   T   T
  0.1666701887830584  0.8333402040755615  0.0000000000000000   F   F   F
  0.9987924099573153  0.4998248929786698  0.1378957674303784   T   T   T
  0.3339057446550736  0.6713221838550114  0.2782633416697865   T   T   T
  0.4166701934847836  0.8333402040755615  0.0000000000000000   F   F   F
  0.2475361857309960  0.4983103963708280  0.1374534374421351   T   T   T
  0.0817909376388778  0.6680500378965202  0.2800821444100149   T   T   T
  0.4166701361897935  0.5833401395954212  0.0000000000000000   F   F   F
  0.2490507873862393  0.7498322805963293  0.1373870038930013   T   T   T
  0.0790550219741183  0.9129527580883311  0.2790408860923338   T   T   T
  0.1666701314880612  0.5833401395954212  0.0000000000000000   F   F   F
  0.0003134219781024  0.7502606920426480  0.1375388785364170   T   T   T
  0.3325190775004950  0.9114199208293446  0.2756394073895748   T   T   T
  0.0833401510389109  0.6666701962665442  0.0691300052784953   F   F   F
  0.4166418615501278  0.8331854390506662  0.2069914414845440   T   T   T
  0.2499030932318960  0.4897017839071747  0.3704209605901514   T   T   T
  0.3333401482694001  0.6666701962665442  0.0691300052784953   F   F   F
  0.1662561964799384  0.8334098351167817  0.2090863049082252   T   T   T
  0.9906588082149183  0.4990685229495860  0.3541187022367893   T   T   T
  0.3333402056288008  0.9166702607466917  0.0691300052784953   F   F   F
  0.1644868539461170  0.5825708700193788  0.2085926406459025   T   T   T
  0.9979705166055463  0.7486302033921974  0.3526801486819092   T   T   T
  0.0833402083339081  0.9166702607466917  0.0691300052784953   F   F   F
  0.4152894950876848  0.5842606469171626  0.2037063585278508   T   T   T
  0.2555549026722113  0.7606931248754756  0.3544253793900961   T   T   T
  0.6666702280714816  0.8333402040755615  0.0000000000000000   F   F   F
  0.5009489441979894  0.5000383320829885  0.1377941813179824   T   T   T
  0.8327962718336531  0.6666956026357920  0.2807102514247601   T   T   T
  0.9166702327732139  0.8333402040755615  0.0000000000000000   F   F   F
  0.7510424272890296  0.5000298828300482  0.1373408092100083   T   T   T
  0.5810549157753100  0.6539316317832800  0.2806773481828938   T   T   T
  0.9166701754782238  0.5833401395954212  0.0000000000000000   F   F   F
  0.7505653483692751  0.7497632230982606  0.1375412889269483   T   T   T
  0.5799296108727785  0.9144591104964021  0.2781412915854689   T   T   T
  0.6666701707764915  0.5833401395954212  0.0000000000000000   F   F   F
  0.5006792120029061  0.7507991920250467  0.1371466816770485   T   T   T
  0.8337373348910002  0.9104290269123396  0.2802360005014518   T   T   T
  0.5833401530355360  0.6666701962665442  0.0691300052784953   F   F   F
  0.9162038385909838  0.8313107098144117  0.2096881137168416   T   T   T
  0.7446173033413754  0.5046946124622819  0.3682471270482284   T   T   T
  0.8333401578016790  0.6666701962665442  0.0691300052784953   F   F   F
  0.6651719462846996  0.8294355629448329  0.2088720766181021   T   T   T
  0.8333402150966691  0.9166702607466917  0.0691300052784953   F   F   F
  0.6704709170930890  0.5830483974330983  0.2070474209504578   T   T   T
  0.9177531180489704  0.5856734983692481  0.2101417421188007   T   T   T
  0.5840702481251228  0.9168302396995358  0.0693399999127493   F   F   F
  0.7416398782938912  0.7372393008097438  0.3683792013462062   T   T   T
  0.4943951785022885  0.7504490196399474  0.3651358547584361   T   T   T
  0.5042671873536758  0.6765522102659479  0.4231858279503966   T   T   T
  0.6540898096842818  0.6660105469126638  0.4273312134107364   T   T   T
  0.5174270550474150  0.6230176798554991  0.5143473744231972   T   T   T
  0.4992676032953882  0.5181491350229472  0.4238169086654269   T   T   T
  0.6494567416927022  0.4873855343596145  0.4210852113576101   T   T   T
  0.4909386903879581  0.3748830479870356  0.4621152887419621   T   T   T
  0.5983163685755709  0.5326898361305170  0.5055826139658649   T   T   T
  0.3340223875933044  0.4900357411929083  0.4265992613486264   T   T   T
  0.4097396413820135  0.4512943411236158  0.5101113648853393   T   T   T
  0.3214011288807073  0.3269084335253478  0.4335610220742319   T   T   T
  0.5278358176228813  0.6887627726540461  0.5868459913716171   T   T   T
  0.4649343463306934  0.7020287817436711  0.5865624132357401   T   T   T
  0.5986222735267146  0.7587340539464675  0.5861653465335513   T   T   T
  0.5238226450452290  0.6436945401308841  0.6243460850994459   T   T   T
  0.3677146646849087  0.3299438167527887  0.4986456686614719   T   T   T
 
  0.00000000E+00  0.00000000E+00  0.00000000E+00
  0.00000000E+00  0.00000000E+00  0.00000000E+00
  0.00000000E+00  0.00000000E+00  0.00000000E+00
  0.00000000E+00  0.00000000E+00  0.00000000E+00
  0.00000000E+00  0.00000000E+00  0.00000000E+00
  0.00000000E+00  0.00000000E+00  0.00000000E+00
  0.00000000E+00  0.00000000E+00  0.00000000E+00
  0.00000000E+00  0.00000000E+00  0.00000000E+00
  0.00000000E+00  0.00000000E+00  0.00000000E+00
  0.00000000E+00  0.00000000E+00  0.00000000E+00
  0.00000000E+00  0.00000000E+00  0.00000000E+00
  0.00000000E+00  0.00000000E+00  0.00000000E+00
  0.00000000E+00  0.00000000E+00  0.00000000E+00
  0.00000000E+00  0.00000000E+00  0.00000000E+00
  0.00000000E+00  0.00000000E+00  0.00000000E+00
  0.00000000E+00  0.00000000E+00  0.00000000E+00
  0.00000000E+00  0.00000000E+00  0.00000000E+00
  0.00000000E+00  0.00000000E+00  0.00000000E+00
  0.00000000E+00  0.00000000E+00  0.00000000E+00
  0.00000000E+00  0.00000000E+00  0.00000000E+00
  0.00000000E+00  0.00000000E+00  0.00000000E+00
  0.00000000E+00  0.00000000E+00  0.00000000E+00
  0.00000000E+00  0.00000000E+00  0.00000000E+00
  0.00000000E+00  0.00000000E+00  0.00000000E+00
  0.00000000E+00  0.00000000E+00  0.00000000E+00
  0.00000000E+00  0.00000000E+00  0.00000000E+00
  0.00000000E+00  0.00000000E+00  0.00000000E+00
  0.00000000E+00  0.00000000E+00  0.00000000E+00
  0.00000000E+00  0.00000000E+00  0.00000000E+00
  0.00000000E+00  0.00000000E+00  0.00000000E+00
  0.00000000E+00  0.00000000E+00  0.00000000E+00
  0.00000000E+00  0.00000000E+00  0.00000000E+00
  0.00000000E+00  0.00000000E+00  0.00000000E+00
  0.00000000E+00  0.00000000E+00  0.00000000E+00
  0.00000000E+00  0.00000000E+00  0.00000000E+00
  0.00000000E+00  0.00000000E+00  0.00000000E+00
  0.00000000E+00  0.00000000E+00  0.00000000E+00
  0.00000000E+00  0.00000000E+00  0.00000000E+00
  0.00000000E+00  0.00000000E+00  0.00000000E+00
  0.00000000E+00  0.00000000E+00  0.00000000E+00
  0.00000000E+00  0.00000000E+00  0.00000000E+00
  0.00000000E+00  0.00000000E+00  0.00000000E+00
  0.00000000E+00  0.00000000E+00  0.00000000E+00
  0.00000000E+00  0.00000000E+00  0.00000000E+00
  0.00000000E+00  0.00000000E+00  0.00000000E+00
  0.00000000E+00  0.00000000E+00  0.00000000E+00
  0.00000000E+00  0.00000000E+00  0.00000000E+00
  0.00000000E+00  0.00000000E+00  0.00000000E+00
  0.00000000E+00  0.00000000E+00  0.00000000E+00
  0.00000000E+00  0.00000000E+00  0.00000000E+00
  0.00000000E+00  0.00000000E+00  0.00000000E+00
  0.00000000E+00  0.00000000E+00  0.00000000E+00
  0.00000000E+00  0.00000000E+00  0.00000000E+00
  0.00000000E+00  0.00000000E+00  0.00000000E+00
  0.00000000E+00  0.00000000E+00  0.00000000E+00
  0.00000000E+00  0.00000000E+00  0.00000000E+00
  0.00000000E+00  0.00000000E+00  0.00000000E+00
  0.00000000E+00  0.00000000E+00  0.00000000E+00
  0.00000000E+00  0.00000000E+00  0.00000000E+00
  0.00000000E+00  0.00000000E+00  0.00000000E+00
  0.00000000E+00  0.00000000E+00  0.00000000E+00
  0.00000000E+00  0.00000000E+00  0.00000000E+00
  0.00000000E+00  0.00000000E+00  0.00000000E+00
  0.00000000E+00  0.00000000E+00  0.00000000E+00
  0.00000000E+00  0.00000000E+00  0.00000000E+00
  0.00000000E+00  0.00000000E+00  0.00000000E+00
  0.00000000E+00  0.00000000E+00  0.00000000E+00
  0.00000000E+00  0.00000000E+00  0.00000000E+00
  0.00000000E+00  0.00000000E+00  0.00000000E+00
  0.00000000E+00  0.00000000E+00  0.00000000E+00
  0.00000000E+00  0.00000000E+00  0.00000000E+00
  0.00000000E+00  0.00000000E+00  0.00000000E+00
  0.00000000E+00  0.00000000E+00  0.00000000E+00
  0.00000000E+00  0.00000000E+00  0.00000000E+00
  0.00000000E+00  0.00000000E+00  0.00000000E+00
  0.00000000E+00  0.00000000E+00  0.00000000E+00
  0.00000000E+00  0.00000000E+00  0.00000000E+00
  0.00000000E+00  0.00000000E+00  0.00000000E+00
  0.00000000E+00  0.00000000E+00  0.00000000E+00
  0.00000000E+00  0.00000000E+00  0.00000000E+00
  0.00000000E+00  0.00000000E+00  0.00000000E+00
  0.00000000E+00  0.00000000E+00  0.00000000E+00
  0.00000000E+00  0.00000000E+00  0.00000000E+00
  0.00000000E+00  0.00000000E+00  0.00000000E+00
  0.00000000E+00  0.00000000E+00  0.00000000E+00
  0.00000000E+00  0.00000000E+00  0.00000000E+00
  0.00000000E+00  0.00000000E+00  0.00000000E+00
  0.00000000E+00  0.00000000E+00  0.00000000E+00
  0.00000000E+00  0.00000000E+00  0.00000000E+00
  0.00000000E+00  0.00000000E+00  0.00000000E+00
  0.00000000E+00  0.00000000E+00  0.00000000E+00
  0.00000000E+00  0.00000000E+00  0.00000000E+00
  0.00000000E+00  0.00000000E+00  0.00000000E+00
  0.00000000E+00  0.00000000E+00  0.00000000E+00
  0.00000000E+00  0.00000000E+00  0.00000000E+00
  0.00000000E+00  0.00000000E+00  0.00000000E+00
  0.00000000E+00  0.00000000E+00  0.00000000E+00
  0.00000000E+00  0.00000000E+00  0.00000000E+00
  0.00000000E+00  0.00000000E+00  0.00000000E+00
  0.00000000E+00  0.00000000E+00  0.00000000E+00
  0.00000000E+00  0.00000000E+00  0.00000000E+00
  0.00000000E+00  0.00000000E+00  0.00000000E+00
  0.00000000E+00  0.00000000E+00  0.00000000E+00
  0.00000000E+00  0.00000000E+00  0.00000000E+00
  0.00000000E+00  0.00000000E+00  0.00000000E+00
  0.00000000E+00  0.00000000E+00  0.00000000E+00
  0.00000000E+00  0.00000000E+00  0.00000000E+00
  0.00000000E+00  0.00000000E+00  0.00000000E+00
  0.00000000E+00  0.00000000E+00  0.00000000E+00
  0.00000000E+00  0.00000000E+00  0.00000000E+00
  0.00000000E+00  0.00000000E+00  0.00000000E+00
  0.00000000E+00  0.00000000E+00  0.00000000E+00
  0.00000000E+00  0.00000000E+00  0.00000000E+00
  0.00000000E+00  0.00000000E+00  0.00000000E+00
  0.00000000E+00  0.00000000E+00  0.00000000E+00
  0.00000000E+00  0.00000000E+00  0.00000000E+00
  0.00000000E+00  0.00000000E+00  0.00000000E+00
  0.00000000E+00  0.00000000E+00  0.00000000E+00
  0.00000000E+00  0.00000000E+00  0.00000000E+00
  0.00000000E+00  0.00000000E+00  0.00000000E+00
  0.00000000E+00  0.00000000E+00  0.00000000E+00
  0.00000000E+00  0.00000000E+00  0.00000000E+00
  0.00000000E+00  0.00000000E+00  0.00000000E+00
  0.00000000E+00  0.00000000E+00  0.00000000E+00
  0.00000000E+00  0.00000000E+00  0.00000000E+00
  0.00000000E+00  0.00000000E+00  0.00000000E+00
  0.00000000E+00  0.00000000E+00  0.00000000E+00
  0.00000000E+00  0.00000000E+00  0.00000000E+00
  0.00000000E+00  0.00000000E+00  0.00000000E+00
  0.00000000E+00  0.00000000E+00  0.00000000E+00
  0.00000000E+00  0.00000000E+00  0.00000000E+00
  0.00000000E+00  0.00000000E+00  0.00000000E+00
  0.00000000E+00  0.00000000E+00  0.00000000E+00
  0.00000000E+00  0.00000000E+00  0.00000000E+00
  0.00000000E+00  0.00000000E+00  0.00000000E+00
  0.00000000E+00  0.00000000E+00  0.00000000E+00
  0.00000000E+00  0.00000000E+00  0.00000000E+00
  0.00000000E+00  0.00000000E+00  0.00000000E+00
  0.00000000E+00  0.00000000E+00  0.00000000E+00
  0.00000000E+00  0.00000000E+00  0.00000000E+00
  0.00000000E+00  0.00000000E+00  0.00000000E+00
  0.00000000E+00  0.00000000E+00  0.00000000E+00
  0.00000000E+00  0.00000000E+00  0.00000000E+00
  0.00000000E+00  0.00000000E+00  0.00000000E+00
  0.00000000E+00  0.00000000E+00  0.00000000E+00
  0.00000000E+00  0.00000000E+00  0.00000000E+00
  0.00000000E+00  0.00000000E+00  0.00000000E+00
  0.00000000E+00  0.00000000E+00  0.00000000E+00
  0.00000000E+00  0.00000000E+00  0.00000000E+00
  0.00000000E+00  0.00000000E+00  0.00000000E+00
  0.00000000E+00  0.00000000E+00  0.00000000E+00
  0.00000000E+00  0.00000000E+00  0.00000000E+00
  0.00000000E+00  0.00000000E+00  0.00000000E+00
  0.00000000E+00  0.00000000E+00  0.00000000E+00
  0.00000000E+00  0.00000000E+00  0.00000000E+00
  0.00000000E+00  0.00000000E+00  0.00000000E+00
  0.00000000E+00  0.00000000E+00  0.00000000E+00
